 # Fcc Cu oriented X=[100], Y=[010], Z=[001].
  
        4000  atoms
           1  atom types
 
      0.000000000000      36.000000000000  xlo xhi
      0.000000000000      36.000000000000  ylo yhi
      0.000000000000      36.000000000000  zlo zhi
 
Masses
 
            1   63.54600000             # Cu
 
Atoms # atomic
 
         1    1       -0.043933740634       0.042734098245       0.084381201943
         2    1        1.789742561833       1.794119071449       0.032904893139
         3    1       -0.043442581442       1.761531754253       1.714438047149
         4    1        1.736790595956       0.071810826379       1.739438132850
         5    1        3.599954572599      -0.018425506678       0.052649003786
         6    1        5.403379185714       1.734456644720      -0.005993710009
         7    1        3.601908786432       1.716810574921       1.882024606398
         8    1        5.447028745417      -0.068907325985       1.741038792083
         9    1        7.140506291919      -0.070708965479      -0.042874236103
        10    1        9.037804114555       1.821889116201       0.029166856954
        11    1        7.135521514028       1.760771436367       1.744501852461
        12    1        8.914942041131       0.002277364699       1.761507528923
        13    1       10.848663666700      -0.000801230505       0.064846540603
        14    1       12.577168465531       1.807651435783       0.082556123769
        15    1       10.858400029993       1.822899520871       1.833203766444
        16    1       12.670695394103      -0.061340513259       1.749338406298
        17    1       14.405322610907       0.043049436983      -0.036050641517
        18    1       16.231564649542       1.816064581852       0.060956616785
        19    1       14.437557165561       1.719694567100       1.788140406997
        20    1       16.220567296149       0.006975549847       1.742357572617
        21    1       18.044543427424      -0.022585566527       0.014468986556
        22    1       19.827615449514       1.760786161396      -0.044244210260
        23    1       17.976505122833       1.756309981604       1.869575707262
        24    1       19.760072190769       0.061131455300       1.781555309692
        25    1       21.617747325375       0.007522343700       0.048522472862
        26    1       23.444078483269       1.757796745670      -0.085900934910
        27    1       21.564917783220       1.763708845783       1.816411286444
        28    1       23.343962763764       0.009312125606       1.881566428854
        29    1       25.249196754464      -0.048349998036       0.049741990511
        30    1       26.967174685659       1.730592629769       0.026277702308
        31    1       25.281025502529       1.857539109430       1.836005560244
        32    1       27.012597528084       0.023349236970       1.767346451467
        33    1       28.821098212873       0.045541808415      -0.025842869479
        34    1       30.520237804021       1.829411321475       0.015236613656
        35    1       28.774567295057       1.849847703744       1.729422649135
        36    1       30.627712984417       0.066504478413       1.772942759395
        37    1       32.320955703433       0.018018716421      -0.053139117159
        38    1       34.119108879433       1.770429519415       0.049978046226
        39    1       32.458526306669       1.825178937994       1.732551817294
        40    1       34.155434533302      -0.056146538436       1.820542444941
        41    1       -0.001361988810       3.606138949473      -0.033255866694
        42    1        1.725132607597       5.430017340278       0.085772955269
        43    1       -0.004666610527       5.391994291981       1.760451274468
        44    1        1.778855457204       3.554435772396       1.739047092242
        45    1        3.540602979158       3.590340928604       0.052671118894
        46    1        5.314883741364       5.470955813810       0.086324169146
        47    1        3.572080219368       5.477980183045       1.875591298716
        48    1        5.429374211645       3.647301159931       1.715468490694
        49    1        7.133342263802       3.625822059561      -0.082376626997
        50    1        8.951110858785       5.318839708888       0.033653382353
        51    1        7.197775219981       5.334443743412       1.768741608716
        52    1        9.040805049379       3.635800183209       1.799281020279
        53    1       10.744642520369       3.615451370442       0.028722632112
        54    1       12.619712651947       5.352767543734      -0.047053477169
        55    1       10.784032033768       5.358735125736       1.852021841695
        56    1       12.615611352584       3.570872956732       1.814247575536
        57    1       14.326562825634       3.626633359665       0.074538041429
        58    1       16.209970570191       5.444968072277      -0.073203164823
        59    1       14.315112505096       5.352630074327       1.861647309505
        60    1       16.146239749961       3.554750530939       1.726807847321
        61    1       17.931966920961       3.641341646242       0.046116495281
        62    1       19.794539266194       5.398479139289       0.003059971117
        63    1       17.985630138204       5.389420834116       1.734040939331
        64    1       19.818841233373       3.579730878219       1.869965793951
        65    1       21.537083653393       3.683375819168      -0.034980004144
        66    1       23.351085551791       5.340789648980      -0.059328051095
        67    1       21.584757692627       5.315611307655       1.833929849589
        68    1       23.456644665198       3.661061843552       1.872648007894
        69    1       25.266704997087       3.672283367414      -0.036988904544
        70    1       26.961940547253       5.392671461174      -0.048055131819
        71    1       25.193165050179       5.357163006631       1.745100694586
        72    1       27.049283434217       3.663762311074       1.885232219198
        73    1       28.847221966975       3.632101933533      -0.002411408605
        74    1       30.565887665054       5.411504556648       0.035407011328
        75    1       28.758536417262       5.450950689666       1.812884489863
        76    1       30.681120446098       3.651988919975       1.817282191471
        77    1       32.471913014972       3.595129322548       0.057827307505
        78    1       34.163508997691       5.328499532924      -0.023667829644
        79    1       32.421370532975       5.386538258722       1.820754480994
        80    1       34.131807190165       3.662238954990       1.765910852339
        81    1        0.052037733988       7.209596148968      -0.047387649982
        82    1        1.735956798978       8.937392460972      -0.071166240762
        83    1       -0.058668306280       9.000411735654       1.740649305173
        84    1        1.854459066732       7.280829755914       1.869363194901
        85    1        3.531965371447       7.254774513649      -0.066838654847
        86    1        5.382158143959       8.946696873019      -0.068402641983
        87    1        3.598598552833       9.009481769410       1.797648177668
        88    1        5.464886908871       7.179557480147       1.822896130588
        89    1        7.204419994409       7.149560345239      -0.079457327714
        90    1        9.042940966028       8.932731460553      -0.069682597073
        91    1        7.178449296591       8.941032699438       1.876437483515
        92    1        9.076977008415       7.128941943314       1.831286371490
        93    1       10.796007744264       7.223755866969       0.018190739960
        94    1       12.639101602597       9.068461556333      -0.054621902942
        95    1       10.842549292026       9.026987622197       1.790324312366
        96    1       12.651701989166       7.205442639165       1.721293570972
        97    1       14.331249981254       7.170415897248       0.086262980402
        98    1       16.204671676541       8.969536171574       0.066131902904
        99    1       14.483802899237       8.935882346096       1.791417138822
       100    1       16.207741369854       7.162103565190       1.824207592829
       101    1       17.998693078137       7.273093171364      -0.053092207583
       102    1       19.813421034598       9.055595392814      -0.081891668384
       103    1       18.005428894444       9.033815123310       1.753915120210
       104    1       19.755104785394       7.275333325376       1.788781856215
       105    1       21.661285350764       7.216634408604      -0.000079307049
       106    1       23.450210574312       8.937836980584       0.004897168921
       107    1       21.619815800199       9.034173934148       1.716770204272
       108    1       23.377912882569       7.182638009138       1.767627597397
       109    1       25.118168755157       7.154567217810      -0.053002995598
       110    1       27.072916593934       9.080363350618      -0.056665601022
       111    1       25.122777107352       9.084753009899       1.876254785812
       112    1       27.021424125249       7.130791099828       1.854278571889
       113    1       28.868155434322       7.189045149014       0.008146339277
       114    1       30.560413065848       9.070578432017      -0.005986013330
       115    1       28.822086163771       8.944763766329       1.876522955311
       116    1       30.667885531345       7.215084804756       1.785158312114
       117    1       32.430460844349       7.143466997727       0.068952072796
       118    1       34.248150731845       9.060536875896      -0.072362223827
       119    1       32.377931769753       9.001796020917       1.802368115928
       120    1       34.196437891900       7.144858768829       1.875702991043
       121    1       -0.076565220329      10.796518132643       0.042389234991
       122    1        1.868817427655      12.599036457727       0.054962162316
       123    1        0.055768959268      12.617966308636       1.719230672986
       124    1        1.743055808012      10.745613779518       1.818204607264
       125    1        3.641937282641      10.803054087369      -0.057951820151
       126    1        5.410563581039      12.617005205784       0.034827643282
       127    1        3.660694092342      12.683260909381       1.787194887414
       128    1        5.398153185141      10.836899047742       1.801702376956
       129    1        7.167511857258      10.856050357652      -0.040181178117
       130    1        8.951978425590      12.621519187932      -0.040025411691
       131    1        7.227851808441      12.517182955600       1.861633749923
       132    1        9.023613938285      10.736599286149       1.731568076015
       133    1       10.749497923328      10.871537501005       0.069668653768
       134    1       12.615620339759      12.539062503135       0.038648770370
       135    1       10.763831844402      12.514243951598       1.825904780425
       136    1       12.649419641820      10.883719086539       1.792899083311
       137    1       14.412570663548      10.805792178889       0.025215864349
       138    1       16.138361959843      12.616428326712      -0.065346604788
       139    1       14.364654928772      12.537258171346       1.842448394035
       140    1       16.246345565403      10.836806478941       1.744345925662
       141    1       17.942297852464      10.840980177040       0.044059535060
       142    1       19.790595709830      12.663929340414      -0.083378201740
       143    1       17.933956125100      12.581860275260       1.856827432045
       144    1       19.852429952915      10.757602987033       1.860970992413
       145    1       21.522549133665      10.870048624092      -0.061477093867
       146    1       23.393314555952      12.526926952080      -0.035138462341
       147    1       21.678482942305      12.561206681102       1.848197590731
       148    1       23.453494038635      10.750868935930       1.838276745341
       149    1       25.263722938942      10.736813783728      -0.051044742567
       150    1       26.953483546191      12.675127954801       0.018391985415
       151    1       25.241415955761      12.618529934123       1.716875789674
       152    1       26.952851028797      10.827262976822       1.882289689602
       153    1       28.762084083763      10.830948735793       0.081720237831
       154    1       30.587628397540      12.602435377466       0.084389599531
       155    1       28.746157657893      12.528396346507       1.829100910757
       156    1       30.630736032234      10.744186107047       1.816656421879
       157    1       32.350830452436      10.757692115379      -0.004503610551
       158    1       34.286665532184      12.548071377344       0.061533377480
       159    1       32.438992632908      12.565353336461       1.734492165035
       160    1       34.239841682692      10.847896395170       1.736875797823
       161    1        0.022517463051      14.474811489539       0.012636216867
       162    1        1.719840772452      16.121791534334      -0.011027490669
       163    1        0.036603652335      16.230949496292       1.824276861823
       164    1        1.832802332751      14.443595587299       1.811046979388
       165    1        3.671825060345      14.329108516747       0.043904860893
       166    1        5.468425698830      16.138584050344       0.063238103036
       167    1        3.647660663473      16.203753318723       1.742667518215
       168    1        5.429355844520      14.357643582420       1.755993556956
       169    1        7.236120836455      14.347269405601      -0.070893409038
       170    1        9.001948910304      16.153814605850       0.025603505646
       171    1        7.264042956761      16.136553254424       1.858911055347
       172    1        8.994417572781      14.453919289539       1.845790839710
       173    1       10.834226704454      14.353534568273       0.018658669467
       174    1       12.536990729929      16.152155918446       0.032179312108
       175    1       10.806422049551      16.166268592935       1.722601666630
       176    1       12.602729438031      14.464459576384       1.729128422107
       177    1       14.430176660194      14.317276683036       0.061031653094
       178    1       16.139587376821      16.247327498911       0.028680222376
       179    1       14.395554200228      16.185518605969       1.736108986256
       180    1       16.145349515006      14.468009584791       1.818891977277
       181    1       18.046741870669      14.400781494224      -0.050126439240
       182    1       19.840727246438      16.220637059598      -0.081250125163
       183    1       17.932911240944      16.192333206289       1.765135999899
       184    1       19.865624929001      14.464428049607       1.842945827190
       185    1       21.573889371393      14.323482458747       0.041524385910
       186    1       23.472484230353      16.261755222765       0.037978984762
       187    1       21.541995694414      16.231902797216       1.842372287674
       188    1       23.476634020725      14.423893469015       1.738598167523
       189    1       25.172921014043      14.361902914875       0.042462102047
       190    1       27.072408236896      16.234044038183      -0.080780710433
       191    1       25.140449362008      16.220372606996       1.804488244520
       192    1       26.953599172578      14.400774448674       1.790486556887
       193    1       28.792158567416      14.449734444242       0.026270775454
       194    1       30.575644795643      16.282552825354      -0.085082486152
       195    1       28.854821212278      16.255135630426       1.730095765373
       196    1       30.623898188264      14.345978436845       1.880458202408
       197    1       32.396639965499      14.358621074526      -0.079301242515
       198    1       34.154799169996      16.203510912540      -0.049482279404
       199    1       32.429157631204      16.136530414563       1.854574875409
       200    1       34.146265545266      14.326328035655       1.886199981962
       201    1        0.039723408138      17.958350182957       0.023411696292
       202    1        1.783577060636      19.724474043372       0.051572334055
       203    1        0.003068420142      19.757613245286       1.739097272258
       204    1        1.722984883589      18.066503659977       1.845364332986
       205    1        3.599653423077      18.008551924503       0.050978601112
       206    1        5.441163741089      19.730473176708       0.012129447224
       207    1        3.549276481528      19.754760651635       1.788221996376
       208    1        5.316151534269      18.084407127133       1.737200663869
       209    1        7.154126345471      18.033090241620       0.071428455898
       210    1        8.998070629845      19.724523450687       0.051452487476
       211    1        7.235479219579      19.802089659471       1.822963834544
       212    1        8.957986917886      17.941116368332       1.802981747367
       213    1       10.811477073724      18.026307615216       0.058761862625
       214    1       12.614548610294      19.753794806224      -0.051393031450
       215    1       10.829925010599      19.749049258505       1.737032185077
       216    1       12.527569344498      17.948897661180       1.731025825601
       217    1       14.364165663808      17.986825323864       0.030675014326
       218    1       16.268632312585      19.769632795465      -0.081260585562
       219    1       14.416177781324      19.751092065992       1.766010945300
       220    1       16.175847491904      18.007988422637       1.822298302265
       221    1       18.006249372662      17.968694712822      -0.056358256424
       222    1       19.831305410003      19.844522354750       0.003470249492
       223    1       18.055994074369      19.880829603512       1.867364751130
       224    1       19.777278256586      17.978452684065       1.793260370116
       225    1       21.667611825428      17.914339019593       0.066961542266
       226    1       23.337198240705      19.791269168101       0.022463541114
       227    1       21.549236096622      19.734605740567       1.796923670985
       228    1       23.438656935719      17.996010834271       1.868703547671
       229    1       25.248872204593      18.017992571008      -0.016280119047
       230    1       27.053145491941      19.754654229403      -0.044465761802
       231    1       25.126234678243      19.869406732059       1.785770060103
       232    1       26.985845251856      17.931823293194       1.763416645859
       233    1       28.797082837823      17.993752521893      -0.032341100138
       234    1       30.578485387764      19.881736635867      -0.060376861630
       235    1       28.788261965072      19.755693809077       1.792086736306
       236    1       30.592801187445      17.968611372603       1.854817870523
       237    1       32.436345050314      18.051396064966      -0.010315436093
       238    1       34.216637821057      19.796330670587      -0.029771091476
       239    1       32.320276901382      19.856241452201       1.845218144947
       240    1       34.168999277802      18.006320565911       1.768826880412
       241    1       -0.034519696941      21.617487131018      -0.044403069041
       242    1        1.713619337758      23.429338069190      -0.069275022091
       243    1       -0.082548937335      23.477729749637       1.721075445214
       244    1        1.825670751264      21.559786341790       1.839988405798
       245    1        3.577297342669      21.526208023557       0.009241643986
       246    1        5.335374604024      23.368311858282      -0.018728439752
       247    1        3.516685613080      23.437907064963       1.849184044153
       248    1        5.329476023204      21.588005092579       1.781086635712
       249    1        7.224909263968      21.544335886524       0.055137417452
       250    1        8.953828062472      23.316752534894      -0.070316135432
       251    1        7.251765657394      23.340826415484       1.837456520053
       252    1        8.983089338841      21.672419969495       1.743972321649
       253    1       10.730306911842      21.648823418016       0.038123312542
       254    1       12.644994689845      23.401408914639      -0.043174760087
       255    1       10.885801159594      23.456027900776       1.870758061641
       256    1       12.626906226426      21.666242315620       1.729647019550
       257    1       14.399046255190      21.527618980144      -0.042921278120
       258    1       16.262422154983      23.429289596672      -0.082402180285
       259    1       14.475525459045      23.337599811424       1.772015593001
       260    1       16.178831440779      21.574672474847       1.749799318921
       261    1       18.012646762803      21.614291390931      -0.044772036567
       262    1       19.799560542778      23.338612193351      -0.014644296936
       263    1       17.922580288654      23.415843617683       1.777424063845
       264    1       19.824168322101      21.565752795016       1.739407270346
       265    1       21.538816679358      21.596832105616       0.061521737130
       266    1       23.461252321234      23.431264843694       0.054601989739
       267    1       21.644231976675      23.484709709892       1.737160483026
       268    1       23.313869698258      21.587939077415       1.772623559778
       269    1       25.236008239200      21.630531850280      -0.041605395926
       270    1       26.927422563611      23.326248137820      -0.049047226937
       271    1       25.138752483712      23.368477142293       1.744601377155
       272    1       26.938769515119      21.610672415113       1.736934537497
       273    1       28.754832328224      21.623724773965       0.023217896487
       274    1       30.537547541319      23.436409439018       0.054792449114
       275    1       28.855311005764      23.358193644873       1.776334009114
       276    1       30.582125523966      21.657454503240       1.771482993087
       277    1       32.426962388480      21.587399240589      -0.083081115558
       278    1       34.161761204243      23.424205154441       0.085303746172
       279    1       32.441236706409      23.384871790143       1.750395581001
       280    1       34.114726382370      21.572052532752       1.827424298462
       281    1       -0.032919829098      25.263930822694      -0.079437147022
       282    1        1.734658574207      27.048940187747      -0.083017662536
       283    1        0.003337197777      27.075971710243       1.733639413140
       284    1        1.747625713891      25.213568066075       1.748507792947
       285    1        3.518057379271      25.152379080432       0.017933495261
       286    1        5.402574698704      26.918297897219       0.009455007423
       287    1        3.676679695160      26.957015454850       1.809432515151
       288    1        5.474748838135      25.224656104073       1.752918923871
       289    1        7.166256895014      25.257356880158      -0.044442716191
       290    1        9.000467476270      26.989324129376      -0.072832701575
       291    1        7.150250947150      27.003745108290       1.868599221677
       292    1        9.029321632476      25.251125858499       1.732992615663
       293    1       10.790355565024      25.271009410026       0.008244935546
       294    1       12.573886423171      27.022982420583      -0.080209143457
       295    1       10.857944324658      26.956702072004       1.831987608188
       296    1       12.532571765147      25.127958233433       1.796620784349
       297    1       14.451992290014      25.272690867808      -0.083308411422
       298    1       16.176898721845      26.933389580848       0.021508821376
       299    1       14.386468054412      27.070805901355       1.790222808822
       300    1       16.141844962362      25.117222495407       1.728273488154
       301    1       18.075797846201      25.275457979166      -0.074124357020
       302    1       19.719615285020      27.065627664965      -0.079128551947
       303    1       18.028104368108      26.975523249146       1.825610958257
       304    1       19.843519646294      25.121968341852       1.799498766652
       305    1       21.657184235793      25.176212163285      -0.055967930305
       306    1       23.426918398027      26.999162034454       0.029546152592
       307    1       21.602655222117      26.931030724404       1.877955881469
       308    1       23.438374302878      25.153870720610       1.871440406365
       309    1       25.238139276064      25.245970044944       0.073873931869
       310    1       27.074208603113      26.997256942866       0.023728908179
       311    1       25.247347215511      26.995291341940       1.883200239605
       312    1       27.063999533514      25.140787101611       1.762017742964
       313    1       28.865748735289      25.158760366850      -0.044319843104
       314    1       30.652757777537      26.918041813077      -0.052818576752
       315    1       28.785881660268      27.072184295544       1.870455903970
       316    1       30.637262512336      25.158687268265       1.757685386950
       317    1       32.408945621922      25.206522115445      -0.023677194400
       318    1       34.150933880268      27.015766348644       0.048143865080
       319    1       32.362035862341      26.990869127127       1.714706496158
       320    1       34.121919449898      25.137868827063       1.731104485050
       321    1       -0.029580272399      28.882811044994      -0.053118951206
       322    1        1.767694509469      30.573099270788      -0.050385395834
       323    1       -0.077899595826      30.532841618293       1.824038671736
       324    1        1.729980562146      28.835605637348       1.846621273869
       325    1        3.598498639402      28.834500929527       0.069799551984
       326    1        5.453481549119      30.539611226067      -0.056154594704
       327    1        3.545167799668      30.519240333477       1.877547731760
       328    1        5.420725978235      28.768753337157       1.741977386885
       329    1        7.230479479096      28.831550853015      -0.002713095855
       330    1        9.033702013948      30.541363344594      -0.052082864157
       331    1        7.211042600367      30.600284368379       1.785448134253
       332    1        9.080602371079      28.784429060812       1.753442278487
       333    1       10.848021254606      28.784451941597       0.000686577213
       334    1       12.620357421257      30.567632895251      -0.077486807072
       335    1       10.762229720980      30.528831677889       1.831792674046
       336    1       12.665805826779      28.752083344100       1.774240247326
       337    1       14.334672143496      28.793238070044      -0.051552802480
       338    1       16.162206556529      30.637830962766       0.031188961669
       339    1       14.440735485106      30.681070712485       1.724093559994
       340    1       16.134043353984      28.873291369369       1.828054256327
       341    1       18.024015391890      28.828072721774      -0.049052812391
       342    1       19.714527982506      30.665990679391       0.013177278307
       343    1       18.008646141899      30.665595390932       1.835582817177
       344    1       19.770338300713      28.801714192785       1.774730700088
       345    1       21.594923881691      28.858904640150       0.083151623014
       346    1       23.396493934648      30.559980788469       0.012245501722
       347    1       21.566018577615      30.653678605049       1.853495163071
       348    1       23.475779807602      28.828332082475       1.853769596861
       349    1       25.168162545077      28.749647805566       0.074641011149
       350    1       27.024778119372      30.587551330206      -0.060483404832
       351    1       25.200410293912      30.547931480872       1.769677381519
       352    1       26.957778543924      28.730862769591       1.830385824303
       353    1       28.813682375858      28.796217020700      -0.048080856628
       354    1       30.678901472185      30.558731686074       0.072945495543
       355    1       28.837187267921      30.627300988510       1.740104467187
       356    1       30.595691393377      28.843754156158       1.842081542027
       357    1       32.471432891699      28.845879977354      -0.007434028495
       358    1       34.176668686108      30.543211503651      -0.063946607311
       359    1       32.380960498858      30.587208860369       1.771906215382
       360    1       34.214026894031      28.846092888330       1.816352334171
       361    1       -0.061163681258      32.439831046924       0.047807066096
       362    1        1.860869389619      34.284066312965      -0.073364973029
       363    1       -0.018006720263      34.150902449929       1.876023448305
       364    1        1.752320417569      32.421858854480       1.777845471836
       365    1        3.560293942259      32.440276121258      -0.022410324366
       366    1        5.398786781218      34.175954664242       0.056734856094
       367    1        3.666267760723      34.163106232699       1.767723630115
       368    1        5.427094722257      32.335159272056       1.800688344529
       369    1        7.245483965170      32.324367462843      -0.064474305674
       370    1        9.084862446613      34.278707617570      -0.016902979991
       371    1        7.243970096801      34.282995751229       1.724287821606
       372    1        8.982467584193      32.336524258092       1.790640999332
       373    1       10.836894000436      32.390317350446       0.075683123066
       374    1       12.602871419942      34.177186127415       0.015679564502
       375    1       10.733196915629      34.115798445922       1.773440226655
       376    1       12.611853224008      32.345586960928       1.790471234272
       377    1       14.482706340590      32.418401118208      -0.020292751050
       378    1       16.177560769823      34.233631980198      -0.019660277161
       379    1       14.482005656665      34.224904968068       1.752525071878
       380    1       16.211312493651      32.407948537103       1.718360932616
       381    1       17.951409422377      32.350778378642       0.085583487544
       382    1       19.739136555381      34.267869319202      -0.050802354727
       383    1       18.031972390627      34.251993479517       1.779314871628
       384    1       19.798600376272      32.334135714425       1.833726988239
       385    1       21.621886803693      32.435872496729      -0.081884246484
       386    1       23.362558076883      34.255342926304       0.033683392772
       387    1       21.674726003968      34.180451645006       1.828995029909
       388    1       23.326110913706      32.337889723666       1.771905319843
       389    1       25.180682065682      32.358586476990       0.048776704793
       390    1       26.996211033209      34.142346660344       0.045635267587
       391    1       25.223212519243      34.183165811328       1.864072621322
       392    1       27.043028599275      32.421375017228       1.769859312475
       393    1       28.717285989462      32.399266186218      -0.075803662623
       394    1       30.659715830288      34.185214295510       0.015946959667
       395    1       28.740490718125      34.221511503632       1.829648567202
       396    1       30.667368630898      32.484833978060       1.819721854098
       397    1       32.365606416119      32.358643683533       0.064120089827
       398    1       34.114892914010      34.269340060487       0.027402793366
       399    1       32.445867752158      34.240130527008       1.802453935368
       400    1       34.155331808440      32.331029796501       1.798475650195
       401    1       -0.016036482576      -0.079588503829       3.577299654251
       402    1        1.781673218082       1.840188755842       3.621224403734
       403    1        0.060999918307       1.790791977134       5.369590236185
       404    1        1.749102883079       0.042312260369       5.422921830666
       405    1        3.521663183801       0.007688666547       3.564993332954
       406    1        5.463230034170       1.729042428525       3.529425969276
       407    1        3.547615654085       1.729664706697       5.359264053465
       408    1        5.405390210803       0.032070872203       5.470865856087
       409    1        7.163310127901      -0.076551966579       3.612716798234
       410    1        9.033026658500       1.831549412507       3.605186888597
       411    1        7.280416905026       1.747076177398       5.345246894095
       412    1        8.997200160996      -0.001874397426       5.350506328627
       413    1       10.749713380569      -0.046086916220       3.677843332566
       414    1       12.674089672298       1.776525353911       3.629743058594
       415    1       10.849937687013       1.732581834273       5.422164671809
       416    1       12.600326426194       0.030930707959       5.423789439458
       417    1       14.482375881969      -0.044294897787       3.551132209657
       418    1       16.201764845472       1.766468041828       3.579128666727
       419    1       14.375448054002       1.881071802201       5.390578789267
       420    1       16.119964353218      -0.032479796046       5.390103592757
       421    1       17.955731683432       0.080815810387       3.606665602260
       422    1       19.799591190641       1.775993804560       3.561815642339
       423    1       17.983549351283       1.734746913685       5.473885987015
       424    1       19.765879796580       0.067344063086       5.473557336221
       425    1       21.532485367427       0.044293621234       3.585543061697
       426    1       23.467305926776       1.826730809928       3.547340510017
       427    1       21.538861954104       1.822558920656       5.431343327483
       428    1       23.325102531406      -0.046463190468       5.430368207017
       429    1       25.189865566789       0.033073731771       3.655654407518
       430    1       26.969881213799       1.786606550754       3.535205579272
       431    1       25.248531542827       1.839882462613       5.429568277426
       432    1       26.950177210825      -0.066639908088       5.470029207189
       433    1       28.753405448297       0.038194329630       3.515437712429
       434    1       30.657679636146       1.861441503917       3.528778620071
       435    1       28.794788532674       1.758679691584       5.384609485652
       436    1       30.675372363096       0.059609311180       5.351895817210
       437    1       32.466568389151      -0.018104387319       3.675664141358
       438    1       34.181187716223       1.717811545846       3.623366519009
       439    1       32.404921042969       1.775376271915       5.322462076453
       440    1       34.195448038944       0.028764820887       5.463932194225
       441    1        0.080365502242       3.575339127443       3.637557309616
       442    1        1.723279169421       5.354778024344       3.669104751412
       443    1        0.006315073699       5.426725226712       5.383127231202
       444    1        1.833238996158       3.580049576584       5.334466105702
       445    1        3.600184388215       3.588296167542       3.548213017069
       446    1        5.450553008068       5.359318405018       3.529082772595
       447    1        3.675929716251       5.374639790540       5.430623049743
       448    1        5.471147556946       3.647229047884       5.371359341871
       449    1        7.140981406531       3.581217903208       3.667134013219
       450    1        9.033629472242       5.340025029241       3.685152474623
       451    1        7.282798276676       5.357335308552       5.405839692077
       452    1        9.067163747106       3.594241172535       5.343492900138
       453    1       10.846578120661       3.652628412573       3.592071135528
       454    1       12.542058055117       5.468080855993       3.556612817617
       455    1       10.769731872031       5.353548288885       5.353048639225
       456    1       12.584535082885       3.639136232713       5.387344646840
       457    1       14.364994337470       3.538363267880       3.666445884328
       458    1       16.160349639132       5.418795018154       3.519900144345
       459    1       14.316896304647       5.391703387739       5.449215072599
       460    1       16.134803337302       3.618328143494       5.368716242898
       461    1       17.978099236955       3.583184840857       3.574715847221
       462    1       19.736345742590       5.417449588541       3.547649522664
       463    1       18.072881333391       5.472322814663       5.414579251441
       464    1       19.746074731514       3.577210596626       5.349645597818
       465    1       21.519427139673       3.570871212498       3.659205472741
       466    1       23.393697441470       5.377644327947       3.579290160270
       467    1       21.588290851824       5.335872493325       5.383423561049
       468    1       23.391713179854       3.592246511065       5.376110342522
       469    1       25.188057655600       3.626929645705       3.637557125219
       470    1       26.973612411420       5.453286890173       3.614224537910
       471    1       25.120495313880       5.379808206694       5.485059841133
       472    1       26.941211208715       3.654150021068       5.333505308306
       473    1       28.810424142254       3.630352000059       3.620754326970
       474    1       30.514082187487       5.368432281465       3.576822156653
       475    1       28.874083624135       5.325664484898       5.383265044378
       476    1       30.516530742765       3.594277217300       5.486031994119
       477    1       32.366625100803       3.640457030107       3.529856374967
       478    1       34.209988390688       5.372686716737       3.536965646509
       479    1       32.380293733567       5.329376015242       5.349099513645
       480    1       34.234339079005       3.583635638877       5.393739094062
       481    1        0.013744816613       7.278766199491       3.590540697748
       482    1        1.782024313469       9.009054472862       3.667398216452
       483    1        0.038854003369       8.967620248640       5.440899569594
       484    1        1.725074817912       7.155939365263       5.464296152634
       485    1        3.531787914257       7.253500260097       3.681730910474
       486    1        5.346128904805       9.004629375224       3.619529865917
       487    1        3.673980255278       9.086696733006       5.315019419492
       488    1        5.335799538957       7.226840904327       5.362374959005
       489    1        7.166530985118       7.199313306451       3.532113670662
       490    1        8.939401621483       9.050241469237       3.679735273945
       491    1        7.236314426184       8.922487717431       5.347675903422
       492    1        9.029637056387       7.243809458877       5.476947165402
       493    1       10.756645150007       7.202763713465       3.613721119358
       494    1       12.639599161669       9.051647934413       3.538485609868
       495    1       10.805156784862       9.070567962659       5.461865155033
       496    1       12.556784956237       7.250501547304       5.369065683343
       497    1       14.485114502107       7.162992509219       3.535208486598
       498    1       16.136567106155       9.082825671334       3.552344898637
       499    1       14.356177957020       9.033712499081       5.481691471584
       500    1       16.286654708212       7.224044025933       5.426665143404
       501    1       17.915135261593       7.158056475513       3.659184918667
       502    1       19.876920577212       9.086498385500       3.552474078414
       503    1       17.983416408814       9.077202728094       5.421260374278
       504    1       19.775704865683       7.179400392503       5.413909603973
       505    1       21.594318626284       7.154506527880       3.611991046326
       506    1       23.481524437223       9.008391091510       3.600162998975
       507    1       21.646052813739       9.057489112504       5.329465397461
       508    1       23.431673342881       7.269938141851       5.418568082419
       509    1       25.196359116932       7.241340689298       3.650849575379
       510    1       26.934091603290       8.995174217160       3.595014950766
       511    1       25.163692891977       9.034989724573       5.443557436406
       512    1       27.039833445722       7.268986313343       5.484907646402
       513    1       28.766225895237       7.275231276934       3.659736038898
       514    1       30.660473291612       9.052353007416       3.558850839929
       515    1       28.797697939097       8.958105033818       5.438319888746
       516    1       30.681049387590       7.220455924831       5.425300304640
       517    1       32.450751866486       7.151159558142       3.528948454163
       518    1       34.245119128278       9.085822714644       3.532290549324
       519    1       32.370651247655       9.077782030478       5.437603434783
       520    1       34.200797748250       7.229676232193       5.394556760558
       521    1        0.009238025829      10.867197536581       3.583143242017
       522    1        1.755735524491      12.677262779480       3.535875802263
       523    1        0.019207400176      12.666907388462       5.483864770008
       524    1        1.864895521260      10.768409147980       5.314514995338
       525    1        3.595554832286      10.837172445337       3.634191566150
       526    1        5.462759248597      12.629858016926       3.612668180300
       527    1        3.606583339551      12.677174142878       5.390723036054
       528    1        5.342187125490      10.717855839580       5.321367702195
       529    1        7.244908002565      10.800652015146       3.669059600545
       530    1        9.064423761531      12.644171516323       3.572985626983
       531    1        7.248840421162      12.575056446125       5.318216338046
       532    1        8.918019682879      10.735302142651       5.430097239120
       533    1       10.851594050888      10.735214391886       3.631009100445
       534    1       12.663655982421      12.595212521129       3.665310764805
       535    1       10.715601192965      12.620870732116       5.387644731916
       536    1       12.634482210665      10.826705948364       5.434732789441
       537    1       14.454762419520      10.831674820137       3.541789095287
       538    1       16.176289913802      12.577569046216       3.569440896195
       539    1       14.425237828873      12.615789148075       5.376335798274
       540    1       16.165734304283      10.732224009041       5.482442579135
       541    1       17.918811355771      10.868086746606       3.631568277317
       542    1       19.834841902138      12.535767629650       3.538045934907
       543    1       17.980788894545      12.600007638055       5.388130537160
       544    1       19.864729743396      10.842002081908       5.459011031986
       545    1       21.632044388258      10.733902598170       3.576889873096
       546    1       23.438719148883      12.558677715565       3.644290034728
       547    1       21.618207681019      12.562055309798       5.369094992217
       548    1       23.422016719710      10.857991508164       5.326171998004
       549    1       25.127960153691      10.735190450270       3.583688890002
       550    1       27.034117893793      12.644634302759       3.680953232602
       551    1       25.169825650701      12.602904697821       5.359612886943
       552    1       26.992209522390      10.724465865460       5.376907792837
       553    1       28.790672817900      10.786151422713       3.616087251356
       554    1       30.554994373391      12.676761560082       3.580230339586
       555    1       28.777092034851      12.686205691631       5.423986445808
       556    1       30.540798068105      10.880899225530       5.325106340305
       557    1       32.465503501191      10.727324695899       3.676922530972
       558    1       34.254501733842      12.675028060157       3.552616308844
       559    1       32.442908567775      12.680546583977       5.371944990426
       560    1       34.229325552293      10.798291336631       5.334129198568
       561    1        0.079176626074      14.440971842185       3.649896829154
       562    1        1.753192697476      16.227911542850       3.516893495946
       563    1       -0.064328224787      16.228383676437       5.416432345489
       564    1        1.728005961299      14.369764095303       5.352311488278
       565    1        3.581740854110      14.470134421942       3.590995748274
       566    1        5.436806273493      16.263486714237       3.599435678909
       567    1        3.613157231717      16.284387962583       5.472944442712
       568    1        5.348156547790      14.394165085259       5.388847392698
       569    1        7.236266599529      14.392390508981       3.574294794207
       570    1        8.983431302588      16.158174595955       3.555651069276
       571    1        7.208461488165      16.226313101468       5.314074687235
       572    1        9.026298114215      14.367551189199       5.360495956508
       573    1       10.764924323362      14.363107033746       3.602465753128
       574    1       12.684929916160      16.252449284354       3.625735381280
       575    1       10.752779822347      16.181214028456       5.474379437401
       576    1       12.577115747556      14.407663305523       5.440827412084
       577    1       14.438653963319      14.424548341918       3.575044479387
       578    1       16.118787284884      16.118979442583       3.534870281550
       579    1       14.321451037369      16.244013976133       5.442305767556
       580    1       16.253502560630      14.420058129430       5.443212700527
       581    1       18.005883442352      14.469399005402       3.565241019869
       582    1       19.823820197035      16.241091079579       3.638437557220
       583    1       18.064558619522      16.115128253807       5.449218917203
       584    1       19.876025227701      14.453069038399       5.461124253065
       585    1       21.637006987765      14.439444746283       3.522625679679
       586    1       23.318100882747      16.161240858613       3.539082671231
       587    1       21.679610153451      16.276246375222       5.442162228791
       588    1       23.411671308786      14.337245570917       5.441423991366
       589    1       25.239552447091      14.400987942460       3.679137358138
       590    1       26.988247824329      16.152445108260       3.521629691033
       591    1       25.179502665886      16.145472444457       5.429777904622
       592    1       26.976925010927      14.388317820535       5.474437673268
       593    1       28.729956702876      14.441996430472       3.539402796840
       594    1       30.535011791064      16.218555483816       3.630448406811
       595    1       28.845184184894      16.272179338299       5.437298984953
       596    1       30.561028726752      14.399563982422       5.356775721284
       597    1       32.452015669105      14.476671163921       3.550323587125
       598    1       34.165694779723      16.204779361299       3.522156686101
       599    1       32.462045960984      16.250860539136       5.449815899755
       600    1       34.244579277123      14.335920816126       5.426867063611
       601    1       -0.070210903841      17.959257391207       3.589367531742
       602    1        1.786052612205      19.861482762503       3.589143734338
       603    1        0.070312669406      19.719720563865       5.370845955328
       604    1        1.869175021223      18.014650734927       5.324708317399
       605    1        3.663367338769      17.998115968339       3.609566187731
       606    1        5.457968140607      19.731099510311       3.534159307286
       607    1        3.537320493482      19.721411435930       5.364800376596
       608    1        5.324076397133      17.953610241577       5.342842160320
       609    1        7.178375866632      17.940173624252       3.520529482945
       610    1        9.074412363926      19.877766929382       3.599706960486
       611    1        7.184923980440      19.801461598794       5.468452446572
       612    1        9.069881374050      18.043983506104       5.442803149488
       613    1       10.827077719980      17.965852922708       3.629053769864
       614    1       12.656749544991      19.777398640828       3.639419191238
       615    1       10.854513931636      19.813524372111       5.320681004891
       616    1       12.675053979017      17.999340293951       5.480630811205
       617    1       14.486307246221      17.960015761850       3.575382640153
       618    1       16.121335763177      19.819441792586       3.599457202644
       619    1       14.467083652302      19.785169686812       5.457236012381
       620    1       16.262764881098      18.047441052473       5.467270254543
       621    1       17.946872051849      18.021436349579       3.524382067972
       622    1       19.755131087573      19.784050222187       3.573477099069
       623    1       18.056232875730      19.789003315664       5.369092242634
       624    1       19.743291869885      18.080000348318       5.355365804344
       625    1       21.571531457763      17.923413401770       3.536274310991
       626    1       23.411881008003      19.884250806846       3.641450606337
       627    1       21.662777623604      19.733352850271       5.427960490062
       628    1       23.417166523058      18.064783027867       5.379396295070
       629    1       25.185871310711      17.990869620995       3.655614371245
       630    1       26.918119065283      19.875588642503       3.578842571843
       631    1       25.234011000927      19.824957866673       5.384914921193
       632    1       27.006055437028      18.011738307463       5.323307289407
       633    1       28.879047199193      17.924823712815       3.579213387488
       634    1       30.552061779082      19.799517696848       3.592503498392
       635    1       28.847432726100      19.814900529761       5.390811109908
       636    1       30.635536022237      18.029433716662       5.390510342061
       637    1       32.436313071052      17.962629989402       3.622199437816
       638    1       34.223178705776      19.793047973761       3.559165451093
       639    1       32.399988153551      19.821635939343       5.348045204876
       640    1       34.118007562508      18.062118472355       5.455334646693
       641    1        0.057501508966      21.650710662450       3.531981193410
       642    1        1.776623001854      23.328739050783       3.557891867853
       643    1        0.066483383192      23.346585448739       5.454392741754
       644    1        1.859090242973      21.648191756135       5.344980036210
       645    1        3.551443386847      21.612160988469       3.648008342213
       646    1        5.426145061768      23.357489588527       3.553302654897
       647    1        3.625207074319      23.355551886680       5.457795672939
       648    1        5.394454568103      21.615009684654       5.355216678538
       649    1        7.172452332697      21.567822050195       3.521483178474
       650    1        9.055662252971      23.337713890869       3.547907627213
       651    1        7.258975150734      23.360374146946       5.319808824642
       652    1        9.029416229676      21.672646193832       5.325061008304
       653    1       10.806852139270      21.517272826856       3.597095463523
       654    1       12.637836113746      23.377108868826       3.520626081315
       655    1       10.873880236011      23.421338665781       5.354143098897
       656    1       12.557019509227      21.680081074483       5.425884165889
       657    1       14.337338114790      21.521342295212       3.520477605525
       658    1       16.178498034676      23.406522429044       3.629404511186
       659    1       14.429915727046      23.468778271520       5.343872769002
       660    1       16.116719305644      21.675017323791       5.401444995498
       661    1       17.922720640139      21.545525478118       3.620401919280
       662    1       19.844900519196      23.468692620785       3.611718674726
       663    1       17.973188876652      23.468727544864       5.404167790224
       664    1       19.736806761869      21.606561776985       5.340194412840
       665    1       21.661690495103      21.541664286946       3.559372710765
       666    1       23.363980124989      23.335836175260       3.601383718086
       667    1       21.532320084931      23.471476606876       5.340329606504
       668    1       23.439179928958      21.620264900276       5.456801126906
       669    1       25.156978816263      21.580786326326       3.609255484270
       670    1       27.049069315810      23.439906870655       3.661004281098
       671    1       25.217613948964      23.375352877650       5.435460151636
       672    1       27.041785935656      21.603444619683       5.442710760108
       673    1       28.790391626780      21.519131837786       3.671947902255
       674    1       30.655107630133      23.358278739864       3.601618000747
       675    1       28.753502920396      23.317577822165       5.335795437054
       676    1       30.550774352593      21.673891200865       5.355070713925
       677    1       32.398634651662      21.653448608426       3.598446458363
       678    1       34.226290144571      23.314541592845       3.515066581932
       679    1       32.459188256739      23.436225173950       5.367978989866
       680    1       34.238194969289      21.606728453054       5.374046324504
       681    1       -0.034738583493      25.133546869360       3.570114369016
       682    1        1.730319443494      26.964337833109       3.612880370601
       683    1        0.000311979798      26.993647171107       5.356201631984
       684    1        1.862122046439      25.119464327008       5.316292949464
       685    1        3.649655636227      25.134690004941       3.640183983550
       686    1        5.465026836599      27.082019314042       3.534274833490
       687    1        3.525257493032      27.027296737076       5.371410620213
       688    1        5.330104798594      25.280368530007       5.349866511234
       689    1        7.131071672617      25.145285144496       3.649611325238
       690    1        8.935602874412      27.045530924032       3.658245164215
       691    1        7.256450888840      26.964118186832       5.467583129062
       692    1        9.017430375036      25.121814355814       5.372791004404
       693    1       10.737907381360      25.157677083183       3.514712883917
       694    1       12.607181772932      27.083199775208       3.599160554726
       695    1       10.782482662988      27.071311975075       5.359108464861
       696    1       12.616611021439      25.153033747490       5.412677298854
       697    1       14.473821469616      25.148590634099       3.623156696250
       698    1       16.235637565567      27.023808369064       3.631480150859
       699    1       14.456385531228      26.926893999554       5.352835284767
       700    1       16.184227563780      25.225710120020       5.359664108113
       701    1       17.918271294613      25.178771204808       3.662693576784
       702    1       19.845014542989      27.034928181148       3.609676253211
       703    1       18.018047664818      26.930351574331       5.422001684321
       704    1       19.762954593897      25.146052377888       5.381642358995
       705    1       21.600343986824      25.276043325181       3.618121861830
       706    1       23.458015856989      27.080157164769       3.550252786896
       707    1       21.620533699297      27.008096427566       5.352957408503
       708    1       23.401005347469      25.187051757380       5.424380663247
       709    1       25.199599620298      25.276225594961       3.600554072780
       710    1       26.987304952345      26.972008033209       3.671139937651
       711    1       25.162176068515      27.008343404797       5.424205846088
       712    1       26.970219404647      25.136772412706       5.464917222544
       713    1       28.737227620138      25.235164562540       3.572435696912
       714    1       30.515989681538      26.958301016967       3.614361934333
       715    1       28.830976974334      27.024247735335       5.464041748663
       716    1       30.535540101966      25.275458333127       5.440886822175
       717    1       32.453649388305      25.146188900697       3.610635165577
       718    1       34.142279916629      26.963066049593       3.532197490334
       719    1       32.390213795052      26.975123345107       5.326942613599
       720    1       34.228397798742      25.165350715529       5.406188335497
       721    1       -0.070849063884      28.721136489397       3.659231972967
       722    1        1.820221539379      30.515819870316       3.650382369724
       723    1       -0.044021083358      30.580632547148       5.432655393553
       724    1        1.753807170395      28.733492462306       5.352305372731
       725    1        3.590763858552      28.829724992182       3.632053189021
       726    1        5.325570182757      30.579833465307       3.627024618468
       727    1        3.621078912689      30.521074172296       5.399965382522
       728    1        5.362608843682      28.870765909527       5.425904325918
       729    1        7.170516731495      28.824706269924       3.558864074406
       730    1        9.029385300801      30.527067914527       3.612447511236
       731    1        7.218433910824      30.655432781079       5.411395618548
       732    1        9.018497463135      28.836618667856       5.419955678617
       733    1       10.823374922194      28.778511660156       3.563154672290
       734    1       12.654608234457      30.572681104189       3.658345865070
       735    1       10.792059256567      30.526280675347       5.473740584155
       736    1       12.528739593948      28.794229250174       5.450689930696
       737    1       14.472311290257      28.724670185328       3.559771274001
       738    1       16.130503325901      30.563832358586       3.538200214676
       739    1       14.453910169938      30.529876912026       5.426830847095
       740    1       16.166408409494      28.767052225704       5.404569346600
       741    1       18.020435010008      28.886525332752       3.556519650293
       742    1       19.747840691301      30.569253335504       3.514128864990
       743    1       18.031169866558      30.628209312340       5.396309098376
       744    1       19.782884411962      28.750878462467       5.343935225298
       745    1       21.598900562501      28.784093707961       3.561393295661
       746    1       23.391855861379      30.616749877381       3.603284799575
       747    1       21.550695508679      30.515681269858       5.473884943585
       748    1       23.458883466438      28.847034942769       5.438639205271
       749    1       25.179854725622      28.819513182997       3.625522314000
       750    1       27.058826537516      30.526053159122       3.604520754077
       751    1       25.245187390958      30.568130031657       5.472994073087
       752    1       27.063996284868      28.735944749244       5.473409774961
       753    1       28.776679593599      28.714042028243       3.533686448760
       754    1       30.669545330249      30.545414439695       3.586548831730
       755    1       28.832579844238      30.519574565030       5.417925910197
       756    1       30.627099388110      28.800196817486       5.355107095827
       757    1       32.444030366637      28.774500395304       3.563021706646
       758    1       34.189946197248      30.518162581526       3.682288086132
       759    1       32.334692829130      30.661332293676       5.331575391445
       760    1       34.181664168994      28.769158470940       5.400476472045
       761    1       -0.064693747593      32.467765991414       3.539325232793
       762    1        1.716333379113      34.254925320739       3.566332637121
       763    1       -0.075017392194      34.144012276872       5.414017012638
       764    1        1.773760071970      32.481583089088       5.404658614121
       765    1        3.660846317032      32.451077645225       3.577829969015
       766    1        5.425201936747      34.259366095117       3.615941292918
       767    1        3.513678351245      34.244542916433       5.318940375344
       768    1        5.371287534840      32.336933877012       5.343386451622
       769    1        7.256278836905      32.400485015996       3.654635308128
       770    1        9.060695769494      34.163912883214       3.603323975469
       771    1        7.227002021328      34.245943931787       5.379636245099
       772    1        9.046731005038      32.475962091064       5.338589501016
       773    1       10.816270424253      32.475117670374       3.594244202181
       774    1       12.601929793325      34.180103684141       3.631127367704
       775    1       10.856236780556      34.283211044891       5.345699601235
       776    1       12.651580224432      32.412286424692       5.367813244298
       777    1       14.480778674474      32.358616686640       3.606380264605
       778    1       16.223572550680      34.212003853669       3.576967468117
       779    1       14.340056578002      34.118283003056       5.331587378813
       780    1       16.231777089566      32.457741011334       5.334864443379
       781    1       18.052762305681      32.480789869632       3.625064192628
       782    1       19.777269822514      34.183153111382       3.575068146204
       783    1       17.929176516081      34.131514414444       5.430011658323
       784    1       19.719005361740      32.383761101562       5.428747068949
       785    1       21.597514280773      32.415856406282       3.623097496469
       786    1       23.436787596026      34.181199629652       3.558678132453
       787    1       21.621471913028      34.260629630910       5.338586116444
       788    1       23.336018080123      32.437537405224       5.419629791300
       789    1       25.225140326555      32.317886475235       3.567303360042
       790    1       26.932755678097      34.184095673208       3.564830436241
       791    1       25.198275388387      34.114962495638       5.360526956602
       792    1       26.969015472045      32.394654518051       5.374571810720
       793    1       28.759068134927      32.411538827165       3.549358706868
       794    1       30.518681047527      34.239058096731       3.596075200790
       795    1       28.760658531910      34.175832234314       5.351529271521
       796    1       30.546334185659      32.409948773119       5.385807196891
       797    1       32.475065110334      32.481632148454       3.655210383388
       798    1       34.228223780179      34.118700726498       3.669786429411
       799    1       32.369693607139      34.160974714906       5.484787034058
       800    1       34.264419668931      32.480492701803       5.470735364149
       801    1        0.047111507460       0.073062547901       7.128201171795
       802    1        1.734527549291       1.821552727096       7.244174961865
       803    1        0.079750014934       1.795694551097       9.058485703144
       804    1        1.859172118253      -0.078571951047       8.974794296351
       805    1        3.555333493479      -0.083359275692       7.273136142306
       806    1        5.476283106992       1.776548660151       7.190464758508
       807    1        3.662538534226       1.728183114474       9.020839357613
       808    1        5.467639516480       0.038646625101       8.923029112085
       809    1        7.121868944698       0.035164866262       7.113951477939
       810    1        8.931502847182       1.838106643686       7.168043144335
       811    1        7.181576700353       1.792444808051       9.061906325753
       812    1        9.059180905551      -0.034671592405       9.083291847322
       813    1       10.764817494475      -0.082209167993       7.168011708387
       814    1       12.598538646643       1.817210544550       7.144719107913
       815    1       10.730662624502       1.801379067053       8.968780096288
       816    1       12.578926889902       0.042991971334       9.072589942998
       817    1       14.447901141357       0.018735308505       7.245574418408
       818    1       16.133818960103       1.808118656007       7.182815842823
       819    1       14.404422697119       1.858478237298       8.924707760897
       820    1       16.260952357050       0.065944567137       9.050591887011
       821    1       18.060865907523       0.036109213815       7.173241898280
       822    1       19.836670260957       1.861549299293       7.188621620380
       823    1       17.922037635980       1.764182089819       8.952855637313
       824    1       19.717859325197       0.079668405068       8.957706239886
       825    1       21.629731408809      -0.008672783245       7.205701927608
       826    1       23.384417282779       1.826359506939       7.227270519346
       827    1       21.563889190171       1.779129797286       9.072606675159
       828    1       23.395540901173      -0.042416701250       8.959833166017
       829    1       25.170950852566      -0.075748724719       7.267827648866
       830    1       27.024699505321       1.810042375565       7.163357332877
       831    1       25.125559875911       1.874454465955       8.991981128140
       832    1       27.049462156803      -0.054038965145       9.064244848372
       833    1       28.869073459898       0.075900795151       7.175119821801
       834    1       30.619818439603       1.760466744815       7.156830540308
       835    1       28.867197232472       1.720550976951       9.002914769993
       836    1       30.612420989607       0.029967523090       8.916298269776
       837    1       32.476207394746       0.083090000545       7.255110322661
       838    1       34.181508641227       1.792815327290       7.183053632172
       839    1       32.393117697189       1.716601387058       9.024085076399
       840    1       34.175340852566      -0.037114333599       8.961162446783
       841    1        0.082794800599       3.638043394473       7.182407243078
       842    1        1.771419839388       5.477206284549       7.232002276927
       843    1        0.050585967361       5.414932616022       8.914879034679
       844    1        1.858016264369       3.664775232442       9.071362025472
       845    1        3.682360278335       3.613202313577       7.140382973525
       846    1        5.340298208302       5.422331820669       7.214399820908
       847    1        3.625945167537       5.481588241148       8.931441086353
       848    1        5.331877002111       3.588827406376       8.927056974202
       849    1        7.237370343664       3.610930193706       7.270617869639
       850    1        8.931081441234       5.320523889105       7.265044633850
       851    1        7.165438548165       5.377489351725       9.032023190136
       852    1        9.037393370267       3.674341698610       9.058316293079
       853    1       10.758933594365       3.679994313082       7.264813125843
       854    1       12.521538291914       5.447042759598       7.142847556207
       855    1       10.825640818464       5.390230821352       9.067405147041
       856    1       12.603124645653       3.623728447849       9.017684092519
       857    1       14.419242120492       3.656713137868       7.282319127312
       858    1       16.227094108554       5.468135558847       7.117569037471
       859    1       14.379118097091       5.446162752616       8.942343732306
       860    1       16.238772084832       3.623897103840       8.948193478596
       861    1       18.078744801517       3.584729087097       7.139447026023
       862    1       19.720993420222       5.382469524712       7.215499911387
       863    1       17.932213267451       5.485262036472       9.056049371374
       864    1       19.830208882069       3.640646402548       9.086135263399
       865    1       21.523937913307       3.624599370038       7.281992522051
       866    1       23.452412766794       5.350802754760       7.136342653856
       867    1       21.660684188550       5.465872303765       9.079473306751
       868    1       23.455110751938       3.549259108721       9.074190354716
       869    1       25.142334273914       3.518478173446       7.227103437021
       870    1       26.986594158322       5.352669069766       7.254915441524
       871    1       25.170149537895       5.467230453244       9.083443674818
       872    1       27.061166663386       3.579321296572       9.020223239936
       873    1       28.774346279439       3.662429012078       7.240272906868
       874    1       30.546189297592       5.478591572526       7.145510597225
       875    1       28.719386860496       5.451668539014       8.944830421816
       876    1       30.644127765834       3.605954637811       8.962074289641
       877    1       32.445409971148       3.526685482374       7.152718112363
       878    1       34.171728338393       5.369659256668       7.162856081514
       879    1       32.332858770185       5.383434159327       8.946276946349
       880    1       34.227069492710       3.585475553503       9.047015228380
       881    1       -0.084260711505       7.218688925488       7.162333497979
       882    1        1.811410630313       8.950322102954       7.269502698645
       883    1       -0.074983155180       9.079496575427       8.923207017982
       884    1        1.723187788518       7.138059127523       8.987474122453
       885    1        3.610923807607       7.116821709985       7.224010022107
       886    1        5.405616065358       9.057409053337       7.232301178226
       887    1        3.633966633693       9.019348545776       9.021159827495
       888    1        5.436833738059       7.172781073423       9.022109282174
       889    1        7.194124529684       7.121852285745       7.191738864933
       890    1        8.951033001539       8.972115860943       7.174409069060
       891    1        7.164126993566       8.993207745354       8.947098961863
       892    1        8.916242686742       7.186679006518       9.005311229545
       893    1       10.776091442820       7.255159702949       7.144960960100
       894    1       12.533398725039       8.927601019095       7.230005429742
       895    1       10.814901553508       9.019117497586       8.925593153872
       896    1       12.625782146026       7.221595508934       8.937074723749
       897    1       14.435969419565       7.143131969031       7.242143071925
       898    1       16.135115206175       9.043193955004       7.213574723480
       899    1       14.318695369698       8.946863147847       9.001125941529
       900    1       16.178713781709       7.192179626859       8.978935937776
       901    1       17.932629695246       7.186288941624       7.254332177850
       902    1       19.844160801515       9.015174430864       7.259832763256
       903    1       18.052022670638       8.984528725059       8.984307097894
       904    1       19.782712472539       7.174725513750       9.031817043420
       905    1       21.608702888759       7.216493405884       7.240662826198
       906    1       23.347034262572       9.083825011128       7.125328405698
       907    1       21.580645967327       9.010730513464       9.033867444110
       908    1       23.340606371553       7.203749495496       8.974442354091
       909    1       25.161902376018       7.188959510275       7.257263321881
       910    1       26.917884918019       9.027316374752       7.218047301990
       911    1       25.194050275695       9.040856942339       9.014208494384
       912    1       27.084500616897       7.240763396135       8.926737432147
       913    1       28.865969287951       7.182525620791       7.210570766554
       914    1       30.530967224147       9.070533328748       7.245249823902
       915    1       28.753877153820       9.027834914744       9.024707344817
       916    1       30.674378637751       7.180820783006       9.075514445264
       917    1       32.441080962437       7.157251123651       7.258824705077
       918    1       34.143873673870       9.042333191651       7.137594317890
       919    1       32.417577153866       9.006834332618       9.044340233612
       920    1       34.270758563993       7.117172513092       8.931285037385
       921    1       -0.053308284845      10.731607092531       7.116528369412
       922    1        1.734412139491      12.550064721170       7.246832644674
       923    1       -0.081244764554      12.660425246489       8.973859133745
       924    1        1.767186744813      10.820074137793       8.943279764657
       925    1        3.667331869513      10.884643907563       7.285252362878
       926    1        5.372973944906      12.643185151213       7.263863289117
       927    1        3.604703154664      12.535028578234       8.971080048509
       928    1        5.443203818384      10.751900895066       8.938706619294
       929    1        7.150164189509      10.764122988538       7.260608397987
       930    1        8.977255099368      12.634898545841       7.166461586420
       931    1        7.275992405833      12.522393154351       8.937700292717
       932    1        9.046460929288      10.816837496852       9.004971581961
       933    1       10.762030721913      10.727531538469       7.167090925785
       934    1       12.603418134873      12.556942091229       7.140014297910
       935    1       10.872862541442      12.623097092123       9.048458389430
       936    1       12.576629793376      10.747608272791       9.040952631454
       937    1       14.453048201686      10.789322221498       7.260480984087
       938    1       16.247100688954      12.685321821653       7.216540467394
       939    1       14.463077848792      12.553719859119       9.042794028711
       940    1       16.136248831460      10.830564866515       9.026596514618
       941    1       17.963678030457      10.834589325782       7.268352784835
       942    1       19.744566420560      12.610384099070       7.251196520938
       943    1       18.014733671163      12.607134795751       8.926870839696
       944    1       19.853584233491      10.749964985411       9.019094449145
       945    1       21.616926634639      10.858833526738       7.148132176914
       946    1       23.358364460511      12.683032779083       7.264457402462
       947    1       21.634495639562      12.656275560128       9.046175647254
       948    1       23.378682680901      10.798778295650       8.984173299524
       949    1       25.204602797008      10.867090618665       7.222298686219
       950    1       27.017532304898      12.644057280098       7.215367671641
       951    1       25.268107376092      12.631342839051       8.991223856841
       952    1       26.986544876338      10.744390482679       9.012979476619
       953    1       28.808653943584      10.823741026442       7.215630074926
       954    1       30.516760663875      12.523695372512       7.120862583890
       955    1       28.762344159357      12.607335688827       9.009829366851
       956    1       30.653736409094      10.851195439002       8.931996937686
       957    1       32.436192412327      10.815287236093       7.174618717202
       958    1       34.163484002273      12.634533295327       7.285647476011
       959    1       32.453212785506      12.530820740235       8.928042644273
       960    1       34.205705576382      10.796526163337       9.078853304451
       961    1       -0.075675050373      14.432195852597       7.154743672909
       962    1        1.723053407298      16.258799151390       7.148986552608
       963    1        0.045008679239      16.233913025113       9.048611221819
       964    1        1.811004512623      14.454196127962       9.010359694492
       965    1        3.686433940020      14.324162907934       7.161834226704
       966    1        5.470405842179      16.251104948454       7.137895540379
       967    1        3.538260346393      16.165305111981       9.006473527039
       968    1        5.421117774494      14.396807433043       9.000775099504
       969    1        7.138761026406      14.353160253439       7.148963956072
       970    1        8.943028484593      16.242964173250       7.206280197076
       971    1        7.199287932894      16.125854442978       8.921690180992
       972    1        9.011132545785      14.353574924406       8.958434321353
       973    1       10.816470088674      14.337566681149       7.274695993646
       974    1       12.671422120721      16.159761933487       7.144291050304
       975    1       10.872378406501      16.252150775948       9.084587524612
       976    1       12.650517986387      14.415984322306       9.082029800613
       977    1       14.422619157986      14.394663291833       7.131788551000
       978    1       16.136982312414      16.149194996927       7.180036737907
       979    1       14.388835611947      16.200092213386       8.933955312347
       980    1       16.175892299876      14.455318818897       9.040019173078
       981    1       18.064097258404      14.403004555878       7.141997914176
       982    1       19.761322575669      16.237187682397       7.161548545781
       983    1       18.062613100717      16.153127007321       9.073653496502
       984    1       19.828242620149      14.440570929236       8.949199823218
       985    1       21.649889099011      14.447615134364       7.139651632786
       986    1       23.461154437660      16.130258511463       7.116716888803
       987    1       21.583678637043      16.186533375609       8.936238720133
       988    1       23.336475558650      14.365295482926       9.034511952622
       989    1       25.261973427956      14.436804256115       7.207266954824
       990    1       26.956030476013      16.192557640576       7.184754639133
       991    1       25.145413611128      16.233541505366       8.916813321940
       992    1       26.995526821697      14.404961825748       8.940572511393
       993    1       28.855741745721      14.421462037467       7.227985461449
       994    1       30.650856912144      16.243298787623       7.208602869717
       995    1       28.820873964546      16.262002195518       8.933862628286
       996    1       30.603110276714      14.485280827632       9.073290119567
       997    1       32.381663952643      14.471241706560       7.246702148167
       998    1       34.128884874966      16.207713950534       7.205771463345
       999    1       32.435165309758      16.272961443888       9.012959756744
      1000    1       34.183700921744      14.464566663811       9.057440918426
      1001    1        0.038369147066      18.054399791858       7.127311178537
      1002    1        1.863151154421      19.775974840879       7.285533515743
      1003    1       -0.002901432002      19.822569610102       9.050895321615
      1004    1        1.880204716585      17.976636085498       8.925650636964
      1005    1        3.653367732340      17.977866871006       7.253525250256
      1006    1        5.343741741145      19.858459084122       7.192124639813
      1007    1        3.603612864623      19.748683302363       9.041258439082
      1008    1        5.372097330223      18.054183177018       9.046060232816
      1009    1        7.244607049716      18.064179121484       7.209876782846
      1010    1        8.931744456645      19.778295003712       7.165043518665
      1011    1        7.150114639388      19.782385159633       8.990000249539
      1012    1        8.995382424355      17.947578894634       9.075754899691
      1013    1       10.775132188128      18.072770318720       7.168938917612
      1014    1       12.536038220209      19.838860832426       7.284324695133
      1015    1       10.759777986287      19.877197624591       8.949095045051
      1016    1       12.560926276615      17.965447808986       9.058797642733
      1017    1       14.447438013784      18.038982700811       7.266487930395
      1018    1       16.243136185929      19.832259666035       7.166787743950
      1019    1       14.432561654768      19.874405298172       9.014861484848
      1020    1       16.137719953405      18.058913325442       9.041682445113
      1021    1       18.045657982153      17.966664446985       7.161396487185
      1022    1       19.862227091454      19.884334539238       7.182071128773
      1023    1       17.993854739036      19.838658981704       8.945800052128
      1024    1       19.747386278513      18.058599409721       8.994778177338
      1025    1       21.559754147602      17.922013417779       7.242337175534
      1026    1       23.461230373409      19.799281627077       7.226668951651
      1027    1       21.635591945353      19.805163514093       8.916946365739
      1028    1       23.321536895620      18.070757510785       8.945227440735
      1029    1       25.229504619666      17.932652690650       7.134405459738
      1030    1       26.924348528961      19.854198437469       7.247513200318
      1031    1       25.171126993593      19.791804485537       8.918291229128
      1032    1       26.929237450780      18.059898314395       8.921923899248
      1033    1       28.758245942945      18.063838188905       7.217373353343
      1034    1       30.606767284817      19.742122697424       7.225901751475
      1035    1       28.785563014555      19.772002473474       8.955855884906
      1036    1       30.597498441242      17.915148316166       9.054637713390
      1037    1       32.355867039944      17.993863896372       7.180258033778
      1038    1       34.253006121691      19.839655224214       7.200730853996
      1039    1       32.334418145024      19.741375872427       8.928510517413
      1040    1       34.272299418282      17.945606254912       8.915839571800
      1041    1       -0.033113110619      21.675668411455       7.129941352324
      1042    1        1.720752427895      23.348205961411       7.208548293848
      1043    1        0.021013222308      23.416125701125       9.061971836615
      1044    1        1.822440631341      21.602255384446       8.966649411288
      1045    1        3.637972324582      21.604986297783       7.165133244066
      1046    1        5.396360075403      23.469264984902       7.238689265762
      1047    1        3.625755201944      23.338170520295       8.961040930836
      1048    1        5.444184006910      21.519738024896       8.918987506432
      1049    1        7.143754242165      21.623504594052       7.132331433160
      1050    1        9.030942408879      23.327970079162       7.225504781118
      1051    1        7.269161711608      23.408863082201       8.918681974474
      1052    1        9.052159775134      21.542540038886       8.988260879447
      1053    1       10.743505344870      21.676324285140       7.228689319503
      1054    1       12.525198892675      23.379944114709       7.222719195826
      1055    1       10.726152060230      23.389670074197       9.035145320410
      1056    1       12.607890685251      21.613338515809       9.035922230624
      1057    1       14.402909145296      21.640866386296       7.215024366359
      1058    1       16.255154197763      23.400772099785       7.117128575099
      1059    1       14.375722152935      23.437258783038       8.941610308307
      1060    1       16.250295462421      21.668404474788       8.942917381206
      1061    1       17.919671180642      21.683260418486       7.228990652928
      1062    1       19.799571123860      23.406503821313       7.134208394181
      1063    1       17.941488308572      23.406117528675       9.005777884177
      1064    1       19.848888463096      21.620199286620       8.951626522287
      1065    1       21.647249413389      21.523056239744       7.168780476609
      1066    1       23.455380159346      23.350391323282       7.230807080561
      1067    1       21.677057223626      23.387285298958       8.934708985380
      1068    1       23.347550460922      21.643099118010       8.971273471400
      1069    1       25.201863470239      21.597780012933       7.120717297198
      1070    1       27.054764877140      23.407613390041       7.127852022374
      1071    1       25.198694697840      23.366589338733       8.925822897381
      1072    1       27.019386217022      21.521004468858       8.939558329159
      1073    1       28.823714609546      21.614736998971       7.177230462443
      1074    1       30.655107576249      23.425579061857       7.142647060915
      1075    1       28.875587325735      23.460964558624       8.994972705917
      1076    1       30.638597985466      21.551902637742       8.966201736079
      1077    1       32.342104616821      21.686306487211       7.132116586465
      1078    1       34.153063417443      23.477716661770       7.127706769350
      1079    1       32.414652453262      23.329054400256       8.950607549547
      1080    1       34.144715250592      21.547898398877       9.077393636110
      1081    1       -0.052939180061      25.121009325586       7.283030880646
      1082    1        1.778952088218      27.002621208823       7.240327426443
      1083    1        0.039472279153      27.081355235731       8.979539419434
      1084    1        1.861899283522      25.221133146067       9.028497849129
      1085    1        3.532060187081      25.161559716520       7.269885702014
      1086    1        5.334172350337      26.941068177761       7.235441975651
      1087    1        3.544742406850      27.083763306687       9.020101145646
      1088    1        5.342698127366      25.252658744526       8.930953816220
      1089    1        7.183181491761      25.286825787165       7.274026904457
      1090    1        8.943776993884      27.070159181791       7.144730537737
      1091    1        7.227153555230      27.048009597525       8.930945039128
      1092    1        8.972499129882      25.239738628626       8.931109156606
      1093    1       10.860365117203      25.218119252434       7.157590220353
      1094    1       12.524985429315      27.051311400913       7.118634241282
      1095    1       10.856515914740      27.039529333287       9.039856187191
      1096    1       12.585514736456      25.241632966553       9.034380873092
      1097    1       14.450163329656      25.232733188213       7.261399392522
      1098    1       16.148785114087      27.005088717279       7.214172764755
      1099    1       14.336509853262      26.964348589706       8.950185474751
      1100    1       16.269903721714      25.249408223428       9.067014020369
      1101    1       18.070937928461      25.170847742686       7.181108970963
      1102    1       19.796177395696      26.978540213078       7.126415340207
      1103    1       17.993649633263      27.002873116344       8.969651250948
      1104    1       19.802733384791      25.169690620318       9.074353393615
      1105    1       21.564029250169      25.170713555160       7.175443902372
      1106    1       23.426352709039      27.053003239302       7.198862686543
      1107    1       21.522609765475      27.015514845297       8.950656900235
      1108    1       23.415101708362      25.198324140846       9.070895636576
      1109    1       25.186731663990      25.227533140625       7.270613530972
      1110    1       26.991068492094      26.968961132377       7.166839404828
      1111    1       25.256630896392      26.998358578298       8.925984725827
      1112    1       27.029830408485      25.257920036406       8.977323247979
      1113    1       28.797649914974      25.205143167985       7.137125305223
      1114    1       30.637627886614      26.976942361039       7.152951465625
      1115    1       28.720879910986      26.963783752018       8.939648143345
      1116    1       30.674921714382      25.160656675254       8.994852858901
      1117    1       32.472817481549      25.129763843816       7.215246816460
      1118    1       34.201800301486      27.059890825175       7.182971332951
      1119    1       32.426948096421      27.080773474458       9.034502458967
      1120    1       34.167456157629      25.119591165061       9.009372081717
      1121    1       -0.078309174774      28.768857895728       7.235467492690
      1122    1        1.784902742874      30.638883431435       7.150981769161
      1123    1       -0.032398572415      30.519305567882       8.962847346633
      1124    1        1.877449447238      28.782225350027       8.939842098402
      1125    1        3.646496110706      28.835668711259       7.180790034942
      1126    1        5.436377537956      30.568861615034       7.201394659042
      1127    1        3.653530445114      30.521768712901       8.997969782815
      1128    1        5.418813755375      28.872409636586       9.026045168576
      1129    1        7.177424987995      28.734967066391       7.170761851472
      1130    1        9.073452979162      30.545882215765       7.125115666592
      1131    1        7.139455842525      30.664568152754       9.045934387930
      1132    1        8.972329277133      28.763518793437       8.990886348752
      1133    1       10.846383089736      28.773825139193       7.145805014726
      1134    1       12.663008297705      30.566714406882       7.233118944165
      1135    1       10.824383013268      30.670412101070       9.055907719576
      1136    1       12.625907466102      28.793640538012       8.924092618167
      1137    1       14.456700472225      28.824531972425       7.191334084832
      1138    1       16.194416473032      30.578371719766       7.188771054979
      1139    1       14.340519209052      30.514349616302       9.000122966184
      1140    1       16.202389817956      28.716929769796       9.050011665099
      1141    1       17.971676764584      28.856125648936       7.235409797283
      1142    1       19.839610852412      30.655953038864       7.241799526094
      1143    1       18.032997455564      30.593884817994       9.020441486924
      1144    1       19.853641904986      28.799022782096       8.983411678775
      1145    1       21.549699112817      28.808653581452       7.123960020158
      1146    1       23.446852232916      30.533778859568       7.247137364502
      1147    1       21.604554075899      30.665423337800       9.076291516943
      1148    1       23.379101197705      28.723456695022       9.066166788419
      1149    1       25.272366699238      28.839375597857       7.198663550668
      1150    1       27.044646317835      30.634633265276       7.264917904369
      1151    1       25.278245973721      30.539250920365       9.068788720825
      1152    1       27.056580156419      28.730765266956       8.919514358750
      1153    1       28.773110976530      28.752576779572       7.122508607940
      1154    1       30.545280824788      30.645451852489       7.152032142507
      1155    1       28.813227215116      30.565664964285       8.938152903838
      1156    1       30.603414353656      28.868807046791       8.917757789630
      1157    1       32.332925837260      28.871148028056       7.263129838269
      1158    1       34.274210298508      30.570651867605       7.273972538763
      1159    1       32.357339922066      30.640030567660       9.057404503771
      1160    1       34.123984826798      28.726203304985       9.046145224174
      1161    1        0.022886357260      32.391890689790       7.282345447051
      1162    1        1.743516003688      34.207258028930       7.250244032837
      1163    1        0.043228349983      34.280108896495       8.973444903881
      1164    1        1.787242156421      32.339148394883       9.061513558565
      1165    1        3.558731674996      32.407999822804       7.118191200298
      1166    1        5.326684549952      34.218866394082       7.231701697749
      1167    1        3.642603848358      34.129060686234       8.951037067780
      1168    1        5.472931736465      32.382287594704       8.985399018380
      1169    1        7.271344032968      32.319915529156       7.281885261523
      1170    1        8.946567219647      34.134895280347       7.159178936985
      1171    1        7.206921401804      34.266518947315       9.084686894493
      1172    1        9.056790041244      32.457596683142       8.964657918363
      1173    1       10.797382282593      32.326436577796       7.235661928439
      1174    1       12.643827333523      34.180103308298       7.283592135046
      1175    1       10.831596660924      34.268113235094       9.042890976768
      1176    1       12.580155321609      32.436945120005       9.038356955719
      1177    1       14.398489368985      32.333960010964       7.270525344965
      1178    1       16.239299815073      34.268254573787       7.174670660225
      1179    1       14.483521644493      34.203218999360       9.078445370252
      1180    1       16.270292637521      32.394368152800       8.987951395492
      1181    1       18.022157398327      32.356791323140       7.197611150497
      1182    1       19.814809858214      34.133652604059       7.168739571429
      1183    1       17.970623816531      34.248186133475       8.960993301872
      1184    1       19.827185245583      32.366478502505       9.026039923510
      1185    1       21.628696688288      32.330985267778       7.163209637420
      1186    1       23.380312836061      34.136752759977       7.262086410474
      1187    1       21.596603957727      34.211140138462       9.003465935774
      1188    1       23.466991305465      32.481743220828       8.999688883582
      1189    1       25.233924524973      32.328766257787       7.231591996754
      1190    1       26.972600536303      34.260197419554       7.285799883125
      1191    1       25.195539879262      34.228064303878       8.937678238677
      1192    1       26.972606175745      32.321267669593       8.960270517866
      1193    1       28.781956210857      32.379397318763       7.268584485842
      1194    1       30.538125321587      34.126412875715       7.241460293491
      1195    1       28.806391737053      34.268375491105       9.046014423026
      1196    1       30.583858093308      32.344586590423       8.937564503602
      1197    1       32.371955749135      32.418208349501       7.193038955242
      1198    1       34.239957039380      34.192868270849       7.200554860991
      1199    1       32.377160510306      34.189865600153       9.034351938945
      1200    1       34.139617677800      32.441034826397       8.996486545367
      1201    1       -0.009419409827       0.023094288239      10.875524491349
      1202    1        1.735047709874       1.797396850323      10.772147524241
      1203    1       -0.043954251296       1.866662108723      12.600174960926
      1204    1        1.748100433535       0.038978984941      12.583841030632
      1205    1        3.652220326553       0.030731660739      10.799536414013
      1206    1        5.340707645920       1.886504133482      10.754227773398
      1207    1        3.563062939746       1.733299596362      12.679659558805
      1208    1        5.413666866163       0.019625764219      12.633971818154
      1209    1        7.183022628961      -0.080890549027      10.796114889941
      1210    1        9.019295676898       1.871491592178      10.774048059017
      1211    1        7.155650794514       1.815049560831      12.594913131908
      1212    1        8.931862520729       0.054194820859      12.588686648822
      1213    1       10.737924356051      -0.036790434963      10.849675212642
      1214    1       12.658221489765       1.768578353600      10.782863902848
      1215    1       10.826130293650       1.850919662252      12.532369652999
      1216    1       12.534742158959      -0.026644377535      12.518178403428
      1217    1       14.376515098334      -0.020986349768      10.837248818588
      1218    1       16.258352134989       1.872902890400      10.851387078396
      1219    1       14.317224247199       1.777325466685      12.556738417910
      1220    1       16.253978823723       0.052954414001      12.520630539491
      1221    1       17.933565605310      -0.027460136973      10.885656669656
      1222    1       19.826155398806       1.831415735110      10.743624118551
      1223    1       18.080667464720       1.714198976974      12.579507065873
      1224    1       19.742640386872      -0.053898265180      12.583593443622
      1225    1       21.607090164929      -0.052589505774      10.748127735109
      1226    1       23.417928829066       1.853278837830      10.769336734951
      1227    1       21.547518540975       1.744585538904      12.569365569837
      1228    1       23.321518851695       0.048771996130      12.680791934067
      1229    1       25.215110024474       0.038113715796      10.873548489507
      1230    1       27.054568895232       1.721374029568      10.777764444163
      1231    1       25.220626790192       1.873873826926      12.673108496510
      1232    1       27.056830626063       0.038989200358      12.625829857878
      1233    1       28.857773248956      -0.069228618026      10.866246474567
      1234    1       30.606988458974       1.819476965181      10.863782151690
      1235    1       28.791696207928       1.737439260556      12.520419130833
      1236    1       30.595137344385      -0.047162690982      12.600099380974
      1237    1       32.408731160085      -0.002193981462      10.773546140144
      1238    1       34.195676199793       1.798666081266      10.826351891188
      1239    1       32.389936417154       1.804222035352      12.559768917868
      1240    1       34.172973723132       0.037172311276      12.555162186731
      1241    1        0.035145770495       3.605540310644      10.839984694713
      1242    1        1.852578670611       5.319472628068      10.765224238056
      1243    1        0.086383773708       5.424607449186      12.608257489988
      1244    1        1.842529144513       3.585702570579      12.618144236313
      1245    1        3.634471553654       3.680609025990      10.804482423733
      1246    1        5.460701524768       5.319266796702      10.880474376494
      1247    1        3.592034551589       5.347341355594      12.672344640133
      1248    1        5.461074355092       3.562399376247      12.532644793729
      1249    1        7.164374708370       3.622466726823      10.813202615110
      1250    1        8.915757344925       5.338485762515      10.777722876380
      1251    1        7.211899095178       5.449817358380      12.581649532865
      1252    1        9.007259484892       3.569992954842      12.550304257168
      1253    1       10.830563118971       3.649374893980      10.785445924753
      1254    1       12.529793078452       5.333508876027      10.810192918208
      1255    1       10.867302900236       5.461065462843      12.584395598752
      1256    1       12.666868614351       3.541239043373      12.554353179505
      1257    1       14.395186119123       3.641409687498      10.812092120204
      1258    1       16.164216139985       5.314212648907      10.739351931219
      1259    1       14.460064177024       5.465362359570      12.603446022806
      1260    1       16.155318177735       3.559979751487      12.647744905533
      1261    1       17.998252653135       3.647719301102      10.886631537374
      1262    1       19.879679412923       5.457417386310      10.753656505540
      1263    1       17.932677487848       5.321590806355      12.619636927465
      1264    1       19.780138652755       3.541455329584      12.626741524071
      1265    1       21.605347423846       3.573836357216      10.817390858565
      1266    1       23.455609130999       5.439319000664      10.748523521061
      1267    1       21.522433867425       5.436838714070      12.684518188841
      1268    1       23.435160300185       3.651547953087      12.608275460532
      1269    1       25.146254512714       3.544248910696      10.739024455119
      1270    1       26.958846168049       5.327624192841      10.858906209010
      1271    1       25.131757983181       5.388553820948      12.623543792815
      1272    1       27.055611237890       3.656310964682      12.611588652707
      1273    1       28.790389756119       3.573432850163      10.789564282243
      1274    1       30.551933764740       5.399444029746      10.869683702925
      1275    1       28.725683129804       5.373619122483      12.601873805005
      1276    1       30.574685387117       3.602356990432      12.552533757343
      1277    1       32.373965689211       3.628487003866      10.736886538818
      1278    1       34.273301182788       5.473084082976      10.872054264875
      1279    1       32.420321789667       5.469166517128      12.630650176245
      1280    1       34.246061218048       3.672061762973      12.574936025132
      1281    1       -0.075348939621       7.233772155918      10.838196010448
      1282    1        1.751553055348       8.968072382921      10.772743740939
      1283    1        0.063453157780       9.024314050654      12.561591113233
      1284    1        1.875916001995       7.237200917708      12.519492067635
      1285    1        3.626674652993       7.179157788692      10.829067305010
      1286    1        5.466764859090       9.020697016152      10.864293709434
      1287    1        3.538906703337       9.035854229552      12.535811943369
      1288    1        5.456382577160       7.272059294965      12.513756534503
      1289    1        7.144541318991       7.234877878995      10.871381705562
      1290    1        9.059279038094       8.948276314240      10.885566119914
      1291    1        7.129461644559       8.997843523357      12.615111584889
      1292    1        8.924392240100       7.202435103496      12.514885339258
      1293    1       10.759013545149       7.182983080365      10.730013267021
      1294    1       12.638195090964       8.939045317124      10.767305708134
      1295    1       10.766072008558       8.984145229018      12.627258396494
      1296    1       12.537386301960       7.256385760380      12.556640414267
      1297    1       14.342364309185       7.212914308151      10.822091375942
      1298    1       16.206575873303       8.930179136981      10.756188903612
      1299    1       14.476534917833       8.939987619516      12.639078003268
      1300    1       16.245897634585       7.140406484607      12.616447177944
      1301    1       17.945656337382       7.286041029420      10.749412543918
      1302    1       19.857981303103       9.062789077710      10.815978527494
      1303    1       18.001631222839       8.929828200626      12.650427678815
      1304    1       19.855672616791       7.269820119611      12.584682044166
      1305    1       21.683512175552       7.174783969209      10.877417857770
      1306    1       23.340830440527       9.016420705771      10.757488037533
      1307    1       21.673918616252       9.064433514264      12.568512685457
      1308    1       23.445039056183       7.233564904627      12.597254026774
      1309    1       25.218012504791       7.189207935224      10.757288199532
      1310    1       26.950077544937       9.031601452724      10.866997872800
      1311    1       25.152681347861       9.060632391720      12.643412710353
      1312    1       27.060128900809       7.213606017922      12.623548963711
      1313    1       28.886548288090       7.269985793239      10.714447053720
      1314    1       30.589865139652       8.941192859956      10.866912247943
      1315    1       28.801422898374       9.001965887033      12.622856605406
      1316    1       30.657356364414       7.253315011969      12.603258423507
      1317    1       32.314990004230       7.278413640801      10.884758372144
      1318    1       34.273517275823       9.067547490765      10.736538977802
      1319    1       32.421418444402       9.084396858935      12.528442265848
      1320    1       34.159996043243       7.195404593989      12.678366084357
      1321    1        0.065879946342      10.726932305188      10.817568871134
      1322    1        1.845981125421      12.574428825007      10.851838276307
      1323    1       -0.007279458682      12.572456071189      12.671546574318
      1324    1        1.767791112045      10.884877509545      12.522704615062
      1325    1        3.574758543291      10.760951474498      10.721815835634
      1326    1        5.415807054149      12.655709051566      10.756559481797
      1327    1        3.623918064125      12.675842107624      12.686246253949
      1328    1        5.404802544053      10.873069272723      12.518092883988
      1329    1        7.142343144538      10.766734084272      10.865920515249
      1330    1        8.984094455106      12.651319009064      10.866068694476
      1331    1        7.190590338925      12.586089810109      12.553566058651
      1332    1        9.049102219245      10.842114870949      12.581084188348
      1333    1       10.800414283207      10.766548728916      10.759028969084
      1334    1       12.644803478479      12.595346946077      10.828986491839
      1335    1       10.773347899250      12.600187978529      12.613563424867
      1336    1       12.568962888162      10.808009557752      12.554345264496
      1337    1       14.440499566174      10.741899077895      10.834647457513
      1338    1       16.241448789802      12.597045528123      10.792565842654
      1339    1       14.366413191353      12.519097867010      12.534512180408
      1340    1       16.205807572424      10.746489562710      12.672368855149
      1341    1       18.026012700347      10.855426103748      10.765205744658
      1342    1       19.732637603563      12.531210181044      10.795131983875
      1343    1       17.969553389146      12.561773352930      12.521599420339
      1344    1       19.780224118815      10.722592832279      12.607379483683
      1345    1       21.516356633942      10.721533682802      10.856621522090
      1346    1       23.478362534262      12.653255713004      10.731441880946
      1347    1       21.678459813883      12.550433147131      12.611158531167
      1348    1       23.434404784225      10.745604866670      12.617814352096
      1349    1       25.270974267249      10.725735105596      10.790267894250
      1350    1       26.936378986569      12.567873688869      10.800294337592
      1351    1       25.247555158271      12.661965010855      12.654176398237
      1352    1       26.950344854211      10.738258018453      12.602689718307
      1353    1       28.870610506871      10.725586677707      10.762245045264
      1354    1       30.520576899639      12.591102830051      10.843422303730
      1355    1       28.744691152678      12.611820031933      12.561510193579
      1356    1       30.530811590281      10.758633057812      12.603905555324
      1357    1       32.418169827784      10.739564447175      10.877698499780
      1358    1       34.164678540003      12.533212648102      10.818494945750
      1359    1       32.353364426292      12.521774808695      12.638027139708
      1360    1       34.275609762637      10.764761159458      12.677014742754
      1361    1       -0.046346102379      14.468484394271      10.742257273217
      1362    1        1.764173591157      16.261575589096      10.759322859876
      1363    1       -0.018572844397      16.154380902375      12.552597009478
      1364    1        1.862126405635      14.431192591532      12.519762896099
      1365    1        3.548500598903      14.337197227080      10.740032181247
      1366    1        5.366390679424      16.240076302015      10.737228264834
      1367    1        3.574356443867      16.214238551597      12.528523646519
      1368    1        5.342496997970      14.468795057317      12.615712502859
      1369    1        7.135061817044      14.475221783986      10.872844061528
      1370    1        8.945223255358      16.255239542676      10.732992586434
      1371    1        7.245270822577      16.224500331537      12.576651497908
      1372    1        9.080307565014      14.450247694845      12.669603664443
      1373    1       10.737179220868      14.337161891349      10.821967657319
      1374    1       12.524463952061      16.162717672238      10.752168795954
      1375    1       10.768490552109      16.258661296461      12.526802707153
      1376    1       12.586393564139      14.447537580934      12.533335874250
      1377    1       14.361677013738      14.388637338789      10.851018965157
      1378    1       16.178166326856      16.254543335884      10.734581189078
      1379    1       14.374298139549      16.232795498620      12.526204735579
      1380    1       16.156086732914      14.393242834268      12.682916631187
      1381    1       17.919407670157      14.347287313103      10.726849800435
      1382    1       19.762230363992      16.251629849211      10.808303898307
      1383    1       18.083242018837      16.192141174607      12.646967799583
      1384    1       19.787923227823      14.409712194782      12.626135224378
      1385    1       21.613462189147      14.480496992833      10.774963325766
      1386    1       23.432903299169      16.145434844255      10.741689016340
      1387    1       21.680559191636      16.242826483696      12.619774892267
      1388    1       23.351060329179      14.326886789759      12.526005387511
      1389    1       25.285289810239      14.433174993777      10.792692566705
      1390    1       27.023277629997      16.230360719519      10.792161317505
      1391    1       25.206598954387      16.135047283025      12.515776338002
      1392    1       26.926598515990      14.444610422014      12.578076212850
      1393    1       28.761416499830      14.451578414310      10.740165245537
      1394    1       30.620123628730      16.184763296777      10.764757647632
      1395    1       28.856419508222      16.119841038308      12.541623681463
      1396    1       30.552053208348      14.456184055930      12.537598035576
      1397    1       32.452451756017      14.342244081973      10.799777932108
      1398    1       34.229368698987      16.134837032838      10.837889841584
      1399    1       32.448650723540      16.268394665641      12.536491527351
      1400    1       34.133200202038      14.445013509812      12.616244858961
      1401    1        0.069868016138      18.064878639677      10.723201986364
      1402    1        1.856360185649      19.729563350225      10.829617365732
      1403    1        0.032970380185      19.737029666320      12.582919431202
      1404    1        1.796619013053      17.972947174919      12.539601154157
      1405    1        3.628808857232      18.009287194112      10.811041256540
      1406    1        5.463932591159      19.831478180882      10.854653088877
      1407    1        3.530089157920      19.750336107206      12.645901920240
      1408    1        5.438816827198      17.973605955296      12.529291167855
      1409    1        7.246963880722      18.082703689815      10.817345820635
      1410    1        8.952500089717      19.740570425650      10.741504566161
      1411    1        7.201948686741      19.861263071976      12.602214110452
      1412    1        8.938269512218      17.916737692880      12.528140211817
      1413    1       10.772278456198      17.989804486622      10.844083679694
      1414    1       12.666952606944      19.748312236984      10.872403218468
      1415    1       10.733546178342      19.843274512302      12.641568823237
      1416    1       12.663378679437      18.021731403211      12.522554320497
      1417    1       14.441356576194      18.012611100318      10.788194825914
      1418    1       16.209799196734      19.855691660652      10.850259201559
      1419    1       14.321425104344      19.874474981723      12.655967680952
      1420    1       16.252885899430      17.949974821290      12.549825204935
      1421    1       17.921661081160      18.064126381378      10.846891565253
      1422    1       19.793336462764      19.794453949411      10.857651815797
      1423    1       18.018632856641      19.815639735929      12.619657217824
      1424    1       19.797925964520      18.064147208720      12.591350339969
      1425    1       21.616497540505      18.067158081738      10.770755654362
      1426    1       23.344822989687      19.766338196701      10.723094633292
      1427    1       21.611893224562      19.798821749606      12.539506120109
      1428    1       23.352488996876      18.084607800440      12.630386085693
      1429    1       25.245386304501      18.019189717063      10.817083772837
      1430    1       27.013192651810      19.763327549572      10.715604341246
      1431    1       25.210600124538      19.814859548249      12.556857490089
      1432    1       26.997000010430      18.009512259897      12.655700018820
      1433    1       28.844317150616      17.947111697534      10.762333494408
      1434    1       30.669556158852      19.854270950853      10.768628935808
      1435    1       28.768703393347      19.835633480728      12.673430921564
      1436    1       30.683715591250      17.974388285953      12.657158483904
      1437    1       32.471847241279      17.987451945247      10.844085362495
      1438    1       34.209400380760      19.876894177456      10.737011669796
      1439    1       32.408302709194      19.732054524466      12.520829436220
      1440    1       34.267278321353      17.943305873013      12.582922897901
      1441    1       -0.058833151733      21.557946764221      10.886400510790
      1442    1        1.742054736695      23.392311795784      10.805181798836
      1443    1        0.058378521981      23.359038641411      12.652223313325
      1444    1        1.818565225461      21.560032075393      12.554603077723
      1445    1        3.653304175197      21.529091760390      10.749850571340
      1446    1        5.422862558812      23.462689412131      10.777035835055
      1447    1        3.587009704126      23.482414919874      12.642290706075
      1448    1        5.337006399547      21.658216236655      12.598348904214
      1449    1        7.124921291452      21.673646856348      10.808021267898
      1450    1        8.941165324133      23.346606341732      10.817698008377
      1451    1        7.216964858276      23.329095030639      12.670880566786
      1452    1        9.067503373639      21.526644116149      12.606962788739
      1453    1       10.759995000935      21.622237793164      10.872023751987
      1454    1       12.648460063603      23.360324281310      10.762591396765
      1455    1       10.825705906654      23.436651274968      12.628906891277
      1456    1       12.542698676018      21.581063868156      12.586924654634
      1457    1       14.456229983214      21.638675662427      10.771806358893
      1458    1       16.244450022160      23.474479195465      10.797027196326
      1459    1       14.461966383707      23.451954507901      12.672767581663
      1460    1       16.261436796596      21.674023236466      12.604000866979
      1461    1       17.965962550909      21.654248470566      10.843504026401
      1462    1       19.716028561426      23.383240943789      10.805571744075
      1463    1       18.053623424110      23.321555282849      12.641504530763
      1464    1       19.737661216012      21.621507420726      12.560967635448
      1465    1       21.598416736460      21.666770531485      10.826656332040
      1466    1       23.471740838533      23.377082323279      10.805865013063
      1467    1       21.618052476778      23.448496508658      12.595953917674
      1468    1       23.345301625555      21.530128904370      12.540856828521
      1469    1       25.217511004740      21.535866233490      10.789620145564
      1470    1       27.073010108133      23.376564289650      10.880442980472
      1471    1       25.217770770695      23.349762763319      12.518289089377
      1472    1       27.076295814384      21.589732648444      12.564595874329
      1473    1       28.782437777602      21.551869932855      10.741049191234
      1474    1       30.639910247197      23.345596461375      10.777173154540
      1475    1       28.727196399285      23.345188325035      12.686731334452
      1476    1       30.543943520302      21.571657073187      12.670382352479
      1477    1       32.372305744992      21.515024697016      10.767143400911
      1478    1       34.242683028708      23.430769802441      10.872263151098
      1479    1       32.326823153978      23.363711562270      12.527439541251
      1480    1       34.251429009632      21.529029301496      12.646331861130
      1481    1       -0.017574125117      25.116808578751      10.820323209398
      1482    1        1.716806897063      27.067445702176      10.830259292923
      1483    1       -0.076080014826      26.920919432693      12.578435074699
      1484    1        1.740932559583      25.202934030732      12.658352012913
      1485    1        3.667615404483      25.262678374635      10.804305473035
      1486    1        5.384690911488      27.000955479797      10.864524113708
      1487    1        3.532405764115      27.030727179959      12.553547634106
      1488    1        5.477118381828      25.272385184585      12.571316139780
      1489    1        7.210663559329      25.201572017113      10.802841025851
      1490    1        8.929867088494      26.954209100147      10.781908425055
      1491    1        7.249239458992      27.012355392500      12.564477199487
      1492    1        8.943229965506      25.133539274475      12.636879946118
      1493    1       10.802992188965      25.264952202421      10.777659600171
      1494    1       12.535257791639      27.036359705979      10.814279185157
      1495    1       10.781879265798      27.044128620779      12.584620303092
      1496    1       12.634896975388      25.140681436693      12.542733955006
      1497    1       14.314806329916      25.283353561645      10.720290409426
      1498    1       16.152508733922      26.981232140403      10.822110573188
      1499    1       14.404359124244      26.976843956888      12.569746434198
      1500    1       16.189917704995      25.163291874401      12.632420834434
      1501    1       18.063389610778      25.146072535659      10.766887894428
      1502    1       19.738100193600      27.001596607329      10.850139350097
      1503    1       18.071727418817      26.996533773754      12.627194396588
      1504    1       19.879694935414      25.151131521305      12.614018811714
      1505    1       21.639229064818      25.192122216248      10.786656440787
      1506    1       23.348481755709      27.021364280534      10.732965874719
      1507    1       21.626046985771      26.943005684393      12.545415666237
      1508    1       23.408909081307      25.176094113042      12.530633103452
      1509    1       25.145796951802      25.268646485585      10.762912739497
      1510    1       26.921020732935      27.018040050561      10.886185802759
      1511    1       25.129011327240      26.931994325094      12.575837622030
      1512    1       26.923404763852      25.189431920378      12.548958576806
      1513    1       28.883890684408      25.135341371656      10.821972558113
      1514    1       30.595595497959      26.925900603691      10.792204242679
      1515    1       28.750682128986      27.065694006191      12.597210732219
      1516    1       30.625054236902      25.223334690255      12.615019305642
      1517    1       32.467356586348      25.255995991635      10.741416381471
      1518    1       34.196333983691      26.991033243697      10.821345144408
      1519    1       32.349297994421      26.922457730771      12.586932333806
      1520    1       34.197367252403      25.188647075255      12.517865654231
      1521    1        0.069353879722      28.886048844380      10.854055950334
      1522    1        1.829348334878      30.598489888526      10.773617911021
      1523    1        0.010399686130      30.654082930939      12.520464059008
      1524    1        1.851432995826      28.830450890160      12.559438351056
      1525    1        3.582333603952      28.753385827735      10.836867750474
      1526    1        5.450694126029      30.657689584765      10.781657236172
      1527    1        3.628897627944      30.660063914322      12.669739108565
      1528    1        5.361221484858      28.837172698324      12.553142706609
      1529    1        7.127887720479      28.743397092774      10.840424042407
      1530    1        8.927687662491      30.524927101900      10.783448520812
      1531    1        7.215745592476      30.685767653174      12.592931185610
      1532    1        8.966844828218      28.723014478239      12.513928631757
      1533    1       10.799827274612      28.778234810998      10.745749747879
      1534    1       12.523709316581      30.650781386021      10.737049385666
      1535    1       10.738026720917      30.515328055652      12.521055598281
      1536    1       12.657064158111      28.801432988683      12.515928200998
      1537    1       14.472200790392      28.716250369649      10.766267917221
      1538    1       16.220850314800      30.558257136615      10.877638474890
      1539    1       14.449303091563      30.561582393078      12.531559094247
      1540    1       16.135141902435      28.759523801593      12.575204528152
      1541    1       18.057667020853      28.872195744329      10.787633336772
      1542    1       19.804355802125      30.552109553355      10.735315300800
      1543    1       17.942421339285      30.672374962985      12.517000641823
      1544    1       19.807757947903      28.746309800983      12.669892224221
      1545    1       21.529474180549      28.861630502557      10.832683726989
      1546    1       23.355043130185      30.567329101354      10.730117888552
      1547    1       21.684700467980      30.529258868544      12.552696888002
      1548    1       23.464216652137      28.873479919025      12.551801853757
      1549    1       25.172905042600      28.866615812675      10.758238370481
      1550    1       26.983194921628      30.598639243173      10.871712287426
      1551    1       25.184966784599      30.531931619184      12.598247403898
      1552    1       26.942462399240      28.782435864552      12.577737977664
      1553    1       28.884259699427      28.789457620129      10.846721207610
      1554    1       30.594092929762      30.521278579231      10.880915716031
      1555    1       28.883153656338      30.627232307195      12.581163143216
      1556    1       30.579350005903      28.798739277748      12.666745921481
      1557    1       32.373801740738      28.729368137297      10.768051137342
      1558    1       34.199953444143      30.543715106255      10.770855128862
      1559    1       32.328078217732      30.563780924408      12.608012851093
      1560    1       34.139588046668      28.823723491577      12.582024323122
      1561    1       -0.012927319004      32.344999310089      10.806791456868
      1562    1        1.778904456677      34.272892946282      10.761807657948
      1563    1        0.027860654129      34.191544309384      12.527033740432
      1564    1        1.716457758022      32.329614843919      12.520875776073
      1565    1        3.677321575726      32.381212961721      10.795945328277
      1566    1        5.477691659208      34.261306303177      10.748529962421
      1567    1        3.680302602257      34.264603406640      12.620204536427
      1568    1        5.390921674895      32.417898714421      12.533080810924
      1569    1        7.220625168185      32.316903525668      10.814403793313
      1570    1        9.062763559134      34.285818371765      10.735206440912
      1571    1        7.261795302068      34.253178657081      12.564098221355
      1572    1        8.977766173987      32.472868389333      12.558267655192
      1573    1       10.760680827209      32.444359925690      10.761433432487
      1574    1       12.646623016621      34.198485275904      10.784795844250
      1575    1       10.770315236237      34.257156390698      12.520025609823
      1576    1       12.635180349293      32.429502512904      12.645243334532
      1577    1       14.425138620898      32.333662384879      10.731278611507
      1578    1       16.141305970854      34.193702991933      10.748326221036
      1579    1       14.427317424340      34.223082558996      12.619457171524
      1580    1       16.153022716865      32.347677042848      12.540196860140
      1581    1       18.040882236002      32.445858731063      10.731715101330
      1582    1       19.767933302542      34.125657113377      10.764121320510
      1583    1       18.012625375859      34.153403414461      12.539062703077
      1584    1       19.873701503147      32.382461595689      12.564526082585
      1585    1       21.683640258335      32.329598547928      10.720119088113
      1586    1       23.446171239940      34.141268133293      10.747745120936
      1587    1       21.609118164561      34.155339206448      12.644287364032
      1588    1       23.448402643685      32.472670347018      12.551952195560
      1589    1       25.154285164954      32.436611611240      10.728537524202
      1590    1       26.944468634481      34.285589096107      10.872046516915
      1591    1       25.282084462256      34.273572836873      12.627815480596
      1592    1       26.992760973878      32.364967387979      12.662565005754
      1593    1       28.718099555661      32.342831703709      10.724708149603
      1594    1       30.590076280042      34.222907374223      10.790761123668
      1595    1       28.728506930115      34.125360948653      12.631966550746
      1596    1       30.536948388043      32.346537775900      12.667660347604
      1597    1       32.315972321212      32.465233962296      10.835511355108
      1598    1       34.251708062916      34.175203461264      10.819209861861
      1599    1       32.422042332806      34.201572074498      12.596207566089
      1600    1       34.168765126281      32.456046407868      12.513871649717
      1601    1        0.047563410278       0.050972662038      14.393172813286
      1602    1        1.835741074536       1.884592640806      14.428027474155
      1603    1       -0.009804073548       1.851371444187      16.162175796790
      1604    1        1.749901094157       0.015516891249      16.146625829526
      1605    1        3.607320703487      -0.052994106890      14.392722806170
      1606    1        5.443008542640       1.760687123503      14.462168344546
      1607    1        3.519803787025       1.816939885927      16.125580205751
      1608    1        5.357124558573      -0.004612916713      16.113760101721
      1609    1        7.280353474814       0.032926244110      14.477308279399
      1610    1        9.058445889226       1.863464456529      14.471826595647
      1611    1        7.269206809342       1.722379593261      16.164245131149
      1612    1        9.043694456265      -0.074732530445      16.151076709959
      1613    1       10.716735052832      -0.078073515598      14.480340878863
      1614    1       12.674936141793       1.809496012139      14.385853216142
      1615    1       10.737080916111       1.869405780447      16.265620832225
      1616    1       12.631858403511       0.075870316004      16.237231549674
      1617    1       14.392622620607       0.006942407626      14.464623864414
      1618    1       16.196433075279       1.861805088045      14.374210507779
      1619    1       14.411148852139       1.764603281333      16.216736818281
      1620    1       16.191316227093      -0.005699271182      16.197304390882
      1621    1       18.085037117889       0.064416509017      14.416730620140
      1622    1       19.737053900016       1.849603522083      14.332876272905
      1623    1       18.058520972282       1.753357827286      16.230154037755
      1624    1       19.722531910031       0.025727502757      16.278514973175
      1625    1       21.651332668781      -0.057457186153      14.458430753518
      1626    1       23.453330879014       1.851290016538      14.343602842137
      1627    1       21.680643475783       1.725726028892      16.196730183374
      1628    1       23.478371412754       0.085083799209      16.150731761360
      1629    1       25.141074343523       0.041311843682      14.472254262625
      1630    1       27.053804533700       1.857079735083      14.471865998744
      1631    1       25.115651461486       1.769609248931      16.261526573338
      1632    1       26.937940600505      -0.014558556660      16.272794219577
      1633    1       28.850892156458       0.042510860297      14.413334412995
      1634    1       30.539338337061       1.832324426208      14.447433963646
      1635    1       28.859800657504       1.791627589584      16.231212637444
      1636    1       30.524307291071      -0.037021806317      16.178324660166
      1637    1       32.431529063988       0.066458883474      14.468002355842
      1638    1       34.135774989450       1.871469978612      14.425871725219
      1639    1       32.352357044467       1.819473338255      16.184443174167
      1640    1       34.278093251558      -0.046449001721      16.245566332572
      1641    1       -0.025783441235       3.613519527715      14.471153071131
      1642    1        1.830053869936       5.340024149396      14.360620886464
      1643    1       -0.042798170324       5.326326816308      16.197926010476
      1644    1        1.881131855667       3.641293953929      16.241955684955
      1645    1        3.539144970837       3.569376012770      14.316807864589
      1646    1        5.451482609609       5.432174961348      14.476998673912
      1647    1        3.600813877365       5.343566563231      16.198887718569
      1648    1        5.486669211055       3.582666825417      16.200934195536
      1649    1        7.124137295637       3.548660720280      14.410674325342
      1650    1        8.963583501888       5.485117439698      14.416797609358
      1651    1        7.181204394535       5.390751833745      16.233070468509
      1652    1        8.937758430210       3.590814704682      16.150751204577
      1653    1       10.810358566969       3.532571451267      14.404427831112
      1654    1       12.637532580198       5.367290085226      14.412523057476
      1655    1       10.831530088049       5.366089196515      16.245441740800
      1656    1       12.563650157249       3.610698787497      16.276660624433
      1657    1       14.478309086219       3.663574777368      14.381298736586
      1658    1       16.138138869612       5.434471976996      14.392702683929
      1659    1       14.400143727941       5.434885651508      16.151292581498
      1660    1       16.256310478809       3.605052219866      16.219059507167
      1661    1       18.048353938839       3.527959340464      14.485336966972
      1662    1       19.774206624280       5.452899004377      14.416467968270
      1663    1       17.946369333230       5.313787757420      16.244163666695
      1664    1       19.742865794595       3.606705688915      16.168480715453
      1665    1       21.603675955663       3.670115282125      14.406359597514
      1666    1       23.478905713744       5.414552408272      14.388403542614
      1667    1       21.548469458407       5.373381688827      16.270608085504
      1668    1       23.413411795125       3.546055846905      16.222980866081
      1669    1       25.243425215480       3.516861723658      14.455828213408
      1670    1       27.037270190659       5.367425848045      14.344850323835
      1671    1       25.149250271308       5.382767224348      16.137478263197
      1672    1       27.051807079477       3.599077973389      16.182564505526
      1673    1       28.730747283606       3.593720613743      14.424483633199
      1674    1       30.606530949925       5.370459593377      14.357550553540
      1675    1       28.776199638051       5.371446528989      16.283980814157
      1676    1       30.567470190008       3.526802718135      16.161660212296
      1677    1       32.339622227718       3.544201112683      14.346707666491
      1678    1       34.239999410079       5.338563253175      14.377690825469
      1679    1       32.348319922496       5.383650235106      16.219082928537
      1680    1       34.194253120141       3.518320988673      16.269039816377
      1681    1        0.019952354733       7.184978892997      14.338111120956
      1682    1        1.844211944005       9.010376306475      14.471484342641
      1683    1        0.019596980562       8.981597766113      16.272702429384
      1684    1        1.834536668732       7.164828395195      16.199973745641
      1685    1        3.574041349311       7.158593903139      14.364732363624
      1686    1        5.325933965963       9.012091039183      14.475655864910
      1687    1        3.664962800100       8.933571634171      16.237516070795
      1688    1        5.477407544444       7.126470212906      16.158230219153
      1689    1        7.154390753414       7.162470262060      14.347971655962
      1690    1        8.994415204590       9.010632919974      14.386448739246
      1691    1        7.260221546745       8.979589632541      16.124160753738
      1692    1        8.948747475543       7.184223161816      16.205966834708
      1693    1       10.828436457915       7.213325922236      14.354594907388
      1694    1       12.544485076512       8.994351192534      14.431828717748
      1695    1       10.758001528311       8.977065820967      16.175519654819
      1696    1       12.584259014084       7.229328855547      16.229697250350
      1697    1       14.453452069489       7.252277901902      14.353270196354
      1698    1       16.127959301991       8.967564153518      14.398569561114
      1699    1       14.471450678035       9.032933637333      16.276165465125
      1700    1       16.280755867920       7.128903288128      16.128577248468
      1701    1       18.031657035319       7.252568255689      14.468503880615
      1702    1       19.749347165808       8.936587795946      14.418042021521
      1703    1       17.996443890912       9.067407504549      16.188620950728
      1704    1       19.852405897557       7.131773983590      16.200020708355
      1705    1       21.580074174918       7.152779493993      14.374030488515
      1706    1       23.479139789226       9.044787173132      14.478660079508
      1707    1       21.675534294094       9.076587138881      16.270713555543
      1708    1       23.361358048121       7.234703179698      16.166835749837
      1709    1       25.142354798931       7.271584419237      14.366543950981
      1710    1       26.991224952638       8.952483342255      14.346787055520
      1711    1       25.134985930886       8.920763109067      16.237413726033
      1712    1       26.915949558764       7.183487032597      16.272985127303
      1713    1       28.754475390498       7.252292983991      14.372512515636
      1714    1       30.675685275949       9.067545995495      14.393449087537
      1715    1       28.821997945708       9.082616285677      16.247106940038
      1716    1       30.669973622061       7.130210974057      16.119346033526
      1717    1       32.473368431836       7.197543178158      14.446352198897
      1718    1       34.185467712600       8.990223913150      14.446912744574
      1719    1       32.314815233681       9.034957545108      16.122216567343
      1720    1       34.239635027578       7.151676710892      16.175817693141
      1721    1        0.037367660707      10.762744290978      14.459439102418
      1722    1        1.823625620505      12.531800935370      14.481653515713
      1723    1       -0.039815603034      12.649329796426      16.132101984949
      1724    1        1.858864514756      10.885584323888      16.242502150161
      1725    1        3.650306673894      10.750816835499      14.445242239813
      1726    1        5.344462534606      12.661396663038      14.447609347561
      1727    1        3.605923667702      12.611516145113      16.115281379979
      1728    1        5.422306717604      10.786822314715      16.141676484817
      1729    1        7.263795717670      10.747554005109      14.365966335416
      1730    1        8.979413060290      12.561946011134      14.471514881948
      1731    1        7.267870038054      12.644931289488      16.257054862672
      1732    1        9.072509641907      10.774505515433      16.274306120068
      1733    1       10.777293773098      10.846202956853      14.365053521665
      1734    1       12.685686315103      12.534853475805      14.323438287133
      1735    1       10.740115843592      12.580831508510      16.218377259432
      1736    1       12.534030070578      10.785023470399      16.136380502362
      1737    1       14.376819846533      10.852303465464      14.386926458448
      1738    1       16.222592637413      12.627944930809      14.471853995439
      1739    1       14.449668301259      12.683394093026      16.186765280517
      1740    1       16.264096209282      10.845580265580      16.269023695994
      1741    1       18.056177729183      10.714299095471      14.412902694469
      1742    1       19.848021837631      12.656435033033      14.352600406501
      1743    1       17.979465182947      12.646552801854      16.201446001514
      1744    1       19.778642066525      10.805366014136      16.136099569876
      1745    1       21.619731014785      10.790201685994      14.411055376677
      1746    1       23.449520050251      12.618630707598      14.333212732277
      1747    1       21.629105410045      12.603259063504      16.117654798378
      1748    1       23.468366718208      10.730748897268      16.132852227874
      1749    1       25.268088367067      10.858446764781      14.462588620540
      1750    1       26.925262210440      12.625045994366      14.431427050688
      1751    1       25.275096752200      12.521982599309      16.223456405581
      1752    1       26.925562435921      10.829998581685      16.129738993303
      1753    1       28.865851002133      10.803182550614      14.418722219053
      1754    1       30.667125071435      12.541825258142      14.321970430557
      1755    1       28.731856221962      12.582502588313      16.279265871062
      1756    1       30.664842974984      10.886152384858      16.219167808303
      1757    1       32.362604471951      10.731256245539      14.330183393144
      1758    1       34.197053258939      12.640778495799      14.447736767584
      1759    1       32.326129277990      12.640344078727      16.281506740688
      1760    1       34.186886371875      10.773922641181      16.185113298370
      1761    1       -0.016444679141      14.412415089848      14.409630237836
      1762    1        1.839214186850      16.228034716658      14.316747459153
      1763    1       -0.056798870639      16.162023800407      16.211256834874
      1764    1        1.797930673791      14.440177085097      16.130758031444
      1765    1        3.657972237398      14.453222100322      14.344290735421
      1766    1        5.392621452285      16.242428895159      14.431804515090
      1767    1        3.611211538173      16.215648278260      16.132775473578
      1768    1        5.396355222039      14.481603963885      16.114381445080
      1769    1        7.239359827667      14.406431397208      14.316659265572
      1770    1        9.073438440203      16.197190515469      14.401124904936
      1771    1        7.143079451294      16.193302431486      16.168953326586
      1772    1        9.037428462500      14.355157888960      16.275273385283
      1773    1       10.792916702940      14.406061073747      14.452131612631
      1774    1       12.638081717428      16.234764283880      14.395839628307
      1775    1       10.788854803301      16.232057444242      16.181020945539
      1776    1       12.545293017892      14.349244418902      16.223333395052
      1777    1       14.415208148052      14.421848360069      14.448267971676
      1778    1       16.261433020507      16.232671879060      14.352473515167
      1779    1       14.431474317222      16.184760170242      16.204433022651
      1780    1       16.142271178701      14.463115730716      16.191924528508
      1781    1       17.920992229370      14.386934137347      14.337467092544
      1782    1       19.779433466646      16.235160408123      14.414556294104
      1783    1       18.075071552299      16.203278161598      16.119005878059
      1784    1       19.733174308800      14.434471399438      16.284675948357
      1785    1       21.518842400117      14.424633224564      14.407372951722
      1786    1       23.350929792066      16.157678478781      14.438325495497
      1787    1       21.603260883112      16.125027499851      16.146036356151
      1788    1       23.401189421274      14.334919005018      16.185450268558
      1789    1       25.130372623680      14.479877471249      14.411149313918
      1790    1       27.068449640574      16.251939195722      14.421236460704
      1791    1       25.141114960583      16.212255483525      16.274786319808
      1792    1       26.929666970621      14.362784212828      16.267771201837
      1793    1       28.766370586382      14.336799776139      14.471289944205
      1794    1       30.549479275772      16.286547067084      14.400584327998
      1795    1       28.784099207848      16.146419785340      16.265671283025
      1796    1       30.563055432050      14.405286032571      16.227856989992
      1797    1       32.365314449197      14.385101189061      14.356048812204
      1798    1       34.203528404387      16.195450352540      14.328862885388
      1799    1       32.447736030208      16.215059388621      16.269243133362
      1800    1       34.126251762021      14.417237667333      16.114183607258
      1801    1       -0.065844039539      18.010789515230      14.381456378411
      1802    1        1.817947491297      19.826618538198      14.327371883812
      1803    1       -0.021540855519      19.847098456357      16.118531695278
      1804    1        1.727424109779      18.070671418951      16.207245251840
      1805    1        3.642155818850      17.982150838863      14.451149228565
      1806    1        5.461114117876      19.819444923840      14.362958692466
      1807    1        3.636738875965      19.872943605016      16.258830486914
      1808    1        5.379867149282      18.062110629225      16.218399026217
      1809    1        7.140407170910      18.007437036309      14.439019888194
      1810    1        8.995890865105      19.793587039757      14.378013341936
      1811    1        7.267495994022      19.841382454320      16.154783075816
      1812    1        9.052192330358      17.930283937295      16.163768454190
      1813    1       10.776850286949      17.926855182866      14.402924451686
      1814    1       12.516970296978      19.783554928024      14.450794464163
      1815    1       10.835520650561      19.713757118990      16.238440776388
      1816    1       12.681717904623      18.042834711605      16.227607943243
      1817    1       14.333357422008      18.001206006015      14.351741747719
      1818    1       16.257007284287      19.743971789282      14.443424747500
      1819    1       14.408476273065      19.823911314410      16.159646753552
      1820    1       16.139769178794      17.930006662360      16.144135296965
      1821    1       18.083666248676      17.915712770752      14.417127219756
      1822    1       19.813879967433      19.755879619219      14.324523420694
      1823    1       18.002627356050      19.870328938718      16.144629529068
      1824    1       19.738839872197      18.082439497532      16.228979073746
      1825    1       21.666335704744      18.003163925458      14.420953275547
      1826    1       23.432175594608      19.721571727458      14.472471049097
      1827    1       21.528688744599      19.771715581037      16.201550305874
      1828    1       23.436894543954      17.978905427854      16.277846762288
      1829    1       25.123337285585      17.992379429633      14.322411004911
      1830    1       26.919985309718      19.847902085447      14.454264608694
      1831    1       25.172862809762      19.773585995197      16.133046945776
      1832    1       26.937009442699      17.934050157579      16.150460947640
      1833    1       28.731940433168      17.974412161899      14.459257702421
      1834    1       30.576685128022      19.878658546109      14.348979148005
      1835    1       28.864464701109      19.824092027715      16.181054678080
      1836    1       30.683468039763      17.968967436712      16.214303976365
      1837    1       32.345512711550      18.055594110970      14.485970293145
      1838    1       34.197827395639      19.860530222755      14.363599674544
      1839    1       32.361114055284      19.730757947415      16.176428230795
      1840    1       34.254928405212      17.941068054515      16.284084998945
      1841    1       -0.034286569895      21.602496333908      14.378862120250
      1842    1        1.714763776140      23.338848965908      14.451033280021
      1843    1        0.028628932896      23.314373760219      16.269566939097
      1844    1        1.846716272048      21.672249882012      16.124706081188
      1845    1        3.641939236637      21.567092307927      14.354279096371
      1846    1        5.485377113257      23.484581701055      14.438662053371
      1847    1        3.598928173835      23.472767092673      16.163023612670
      1848    1        5.400221273957      21.581687832411      16.276931105365
      1849    1        7.200300394995      21.576385304838      14.399775656832
      1850    1        9.061084297099      23.485757091864      14.317435201125
      1851    1        7.196547380461      23.318715843114      16.245748901093
      1852    1        8.943690607478      21.597510669291      16.171800825422
      1853    1       10.790310387684      21.570817934226      14.321921082666
      1854    1       12.636050572531      23.434549834242      14.479571681237
      1855    1       10.713972315022      23.366155313152      16.198424423921
      1856    1       12.653436721705      21.574460626271      16.227375758524
      1857    1       14.370792708854      21.648921104923      14.340989041681
      1858    1       16.147415933210      23.449840250980      14.351152904083
      1859    1       14.455019817923      23.453213102889      16.176308570654
      1860    1       16.207072535468      21.617748611688      16.160345791367
      1861    1       18.004208112942      21.664200723397      14.410464958639
      1862    1       19.789322082965      23.432176004954      14.389073574110
      1863    1       17.950453294419      23.452627612129      16.121767686885
      1864    1       19.763367899292      21.647523662050      16.169749773531
      1865    1       21.529352590327      21.558050007670      14.400508220310
      1866    1       23.330638882110      23.452686570683      14.476631064932
      1867    1       21.655121626868      23.362149186118      16.119645588709
      1868    1       23.368169608512      21.543600340626      16.115834898806
      1869    1       25.173245585745      21.533755883422      14.367979249107
      1870    1       26.927450984690      23.342330887463      14.450516055907
      1871    1       25.140241646181      23.371245914219      16.253768853779
      1872    1       26.995679164381      21.522989039700      16.200111924673
      1873    1       28.779699057154      21.613477607235      14.413233829110
      1874    1       30.650868133095      23.435345376745      14.375221300230
      1875    1       28.857649088325      23.425343161955      16.197132926233
      1876    1       30.568949695255      21.545815188375      16.268283904935
      1877    1       32.438283146835      21.682375490902      14.380043641714
      1878    1       34.183406646390      23.340620859766      14.351244546312
      1879    1       32.336604900553      23.394629387321      16.123029634213
      1880    1       34.152928008836      21.524687693550      16.126120402058
      1881    1        0.043990736872      25.253292691767      14.349239373695
      1882    1        1.746272350746      26.966259377704      14.334748588687
      1883    1        0.083978229496      26.995922322321      16.198053221798
      1884    1        1.825440704865      25.233920634015      16.214470868845
      1885    1        3.612110437194      25.149105499987      14.317033839353
      1886    1        5.425037164908      27.060294652339      14.429975008797
      1887    1        3.611044828911      27.079390055443      16.280435035206
      1888    1        5.385063833669      25.188835154232      16.277144670049
      1889    1        7.203500428892      25.145302066277      14.471816767139
      1890    1        9.074303330901      27.037398992179      14.333733541772
      1891    1        7.164269029385      26.939503332500      16.115376293463
      1892    1        9.061509518004      25.156793197130      16.132737373953
      1893    1       10.844409138673      25.225637782388      14.362305140145
      1894    1       12.650821606446      26.958974372341      14.332353713886
      1895    1       10.834039531802      27.009602807287      16.219280613757
      1896    1       12.542750710271      25.187854011272      16.197824404565
      1897    1       14.438135645922      25.236363370059      14.349842025228
      1898    1       16.157138949766      26.943871838514      14.364405226277
      1899    1       14.368555824970      27.019301011524      16.156944146846
      1900    1       16.226070000281      25.242970661135      16.249721111525
      1901    1       17.955760822836      25.255268460118      14.364961084362
      1902    1       19.735307475581      26.918897196523      14.358109393148
      1903    1       18.011683856920      27.046408658669      16.225394537768
      1904    1       19.727695414459      25.238245999770      16.114660563224
      1905    1       21.672222243476      25.118840068880      14.344151112997
      1906    1       23.382577378832      26.979216102312      14.463015369550
      1907    1       21.523770832114      27.056524445749      16.271782504175
      1908    1       23.339065633663      25.220699969142      16.189711351230
      1909    1       25.258091021328      25.182081314703      14.369104237763
      1910    1       27.036848730652      27.000368011612      14.355704087549
      1911    1       25.275196780205      27.067792909561      16.220703744315
      1912    1       27.011278161523      25.207227353457      16.267317772400
      1913    1       28.723285073101      25.257220687532      14.391312636022
      1914    1       30.673706696723      26.996062398730      14.396093585968
      1915    1       28.737486575066      27.066696573561      16.121983256431
      1916    1       30.550573167305      25.184327524229      16.215528103175
      1917    1       32.385435435129      25.138584499009      14.329140774517
      1918    1       34.177723309429      26.931415404739      14.318650914257
      1919    1       32.484078146909      27.003584191528      16.274529417211
      1920    1       34.264459869259      25.228797706698      16.284154038299
      1921    1       -0.028876575717      28.870629280345      14.344740600224
      1922    1        1.825479437276      30.613213181131      14.384261353462
      1923    1        0.044283457740      30.546116716605      16.203190939731
      1924    1        1.792304780279      28.791003156014      16.211610559413
      1925    1        3.681507405987      28.795873761365      14.398594473321
      1926    1        5.461025045596      30.518001687758      14.336643029724
      1927    1        3.648672884360      30.559589137906      16.167463346943
      1928    1        5.484298181605      28.761661258818      16.168124517752
      1929    1        7.270372066250      28.861214413442      14.454038136045
      1930    1        8.949438247151      30.537916907953      14.431254068640
      1931    1        7.121379005977      30.560177911923      16.270867220988
      1932    1        8.924036693054      28.830482368754      16.114633298705
      1933    1       10.774927171933      28.789778857152      14.342488114215
      1934    1       12.614241963658      30.530456155094      14.393273920547
      1935    1       10.857932256034      30.685669286233      16.257471107772
      1936    1       12.615095240142      28.871078341455      16.159576475488
      1937    1       14.485021613366      28.766927330587      14.322181167752
      1938    1       16.240014294331      30.614692641157      14.422466388162
      1939    1       14.334779767462      30.554311353925      16.161726706278
      1940    1       16.280557581275      28.714678207657      16.200044098041
      1941    1       17.953811304082      28.879675249587      14.387210004489
      1942    1       19.884015956171      30.596835555038      14.404036185899
      1943    1       18.025255663669      30.622823343463      16.244696300725
      1944    1       19.721391834951      28.789807948848      16.210405329066
      1945    1       21.606866500720      28.769395374081      14.348647541317
      1946    1       23.464663464386      30.560372433416      14.322748726297
      1947    1       21.663376444287      30.664789311497      16.165972056275
      1948    1       23.445989662313      28.785999038467      16.283065665239
      1949    1       25.265470687732      28.874635888542      14.431791476252
      1950    1       26.967406460478      30.577880588489      14.331209766822
      1951    1       25.211296282344      30.575554882578      16.213264778204
      1952    1       27.054496538751      28.715319077490      16.229814948052
      1953    1       28.809764908298      28.804962712982      14.333507089405
      1954    1       30.662489359131      30.552571097147      14.322718600478
      1955    1       28.831720307180      30.627158495932      16.214823757480
      1956    1       30.554660668985      28.714211829137      16.204234721927
      1957    1       32.471319448479      28.858883463287      14.444953047145
      1958    1       34.267624141212      30.570678978254      14.354033638629
      1959    1       32.319915026303      30.620700808555      16.257928822507
      1960    1       34.229860716611      28.773997745460      16.172841005591
      1961    1       -0.051974467487      32.389603843310      14.458215585775
      1962    1        1.761303235249      34.141376935642      14.337078788423
      1963    1        0.017661490095      34.273469426210      16.269796551268
      1964    1        1.741429074197      32.371937661808      16.170632739057
      1965    1        3.537089852207      32.329610913812      14.384627385528
      1966    1        5.435185344386      34.227771670014      14.466117797401
      1967    1        3.573418461159      34.270758627008      16.201943741757
      1968    1        5.338567692200      32.410560443767      16.192753784887
      1969    1        7.281678933191      32.375095943387      14.450702582442
      1970    1        8.964859922074      34.208326102537      14.453416599715
      1971    1        7.188273657605      34.169912735211      16.116938830573
      1972    1        9.060864609914      32.403015242305      16.248994043759
      1973    1       10.809899269585      32.410586706685      14.387785070169
      1974    1       12.525585698455      34.172215087560      14.465442836895
      1975    1       10.724080506555      34.190181387724      16.140913099389
      1976    1       12.667524217858      32.348051968305      16.169730285199
      1977    1       14.383189475278      32.368212401150      14.321906777780
      1978    1       16.126721515186      34.177825059979      14.467667054177
      1979    1       14.431482858622      34.190232569147      16.214378396499
      1980    1       16.241904594696      32.477412097119      16.240988712458
      1981    1       18.029433528694      32.443956080396      14.316356131494
      1982    1       19.730605292251      34.285233547484      14.350518306150
      1983    1       17.924127999353      34.155999700003      16.240948836726
      1984    1       19.861100808402      32.322150326507      16.275949101442
      1985    1       21.558039795729      32.375722342920      14.345234685684
      1986    1       23.365148559899      34.168661893400      14.347057459062
      1987    1       21.648283721147      34.125910900709      16.209780672954
      1988    1       23.456223710956      32.351012184941      16.213985361353
      1989    1       25.207332902383      32.444818121275      14.481178182233
      1990    1       27.008582153609      34.127887831316      14.424826373340
      1991    1       25.285049814764      34.271669568120      16.253357931525
      1992    1       26.982091504551      32.365328150818      16.257831535085
      1993    1       28.801234056010      32.372733936208      14.337109078493
      1994    1       30.638095850456      34.264931647542      14.329034498313
      1995    1       28.845741172086      34.271989362260      16.166699442884
      1996    1       30.514299103297      32.315564698386      16.271950016302
      1997    1       32.408361742241      32.359080525429      14.451358563199
      1998    1       34.158265629645      34.140896079496      14.315762952190
      1999    1       32.423668991479      34.215573545274      16.177862497939
      2000    1       34.185607328971      32.376348082663      16.256353991005
      2001    1       -0.053239634522      -0.017145929444      17.985269509070
      2002    1        1.862453236328       1.820866604847      18.042493801744
      2003    1        0.034006425496       1.848302727863      19.791561466557
      2004    1        1.859306041337      -0.010871466004      19.726638080285
      2005    1        3.671190157649      -0.007071124350      18.081407864125
      2006    1        5.479690806063       1.860296514282      17.977538755389
      2007    1        3.549551204624       1.847757703967      19.804736508201
      2008    1        5.321870421259       0.008260658380      19.845584213553
      2009    1        7.256954066743       0.079886094229      18.020416150770
      2010    1        8.987338292172       1.854016481048      17.946824256923
      2011    1        7.241608310610       1.807342302864      19.848779928242
      2012    1        9.024102406669       0.053003356750      19.796876045908
      2013    1       10.752656388857       0.075644306774      18.024607487449
      2014    1       12.627712379284       1.848292029832      17.913932653724
      2015    1       10.722146503775       1.726032792456      19.784652248059
      2016    1       12.599493869998       0.032658172110      19.779232889142
      2017    1       14.410037232769       0.017709656739      17.974020574689
      2018    1       16.219048744699       1.759050352183      18.067920113992
      2019    1       14.464793920363       1.798592736565      19.757216557343
      2020    1       16.120851707653      -0.067460779198      19.782246213323
      2021    1       18.036216456361      -0.079560035162      18.020442663061
      2022    1       19.738304279023       1.762435695512      17.947314668751
      2023    1       17.945021536129       1.873657822678      19.767735162932
      2024    1       19.757571947247       0.047591610312      19.720378901300
      2025    1       21.654710540996      -0.082366495702      17.992195415481
      2026    1       23.478108873808       1.732194828975      17.969435506861
      2027    1       21.521798324204       1.824579533907      19.804037243573
      2028    1       23.458355149684      -0.005725246821      19.807578471057
      2029    1       25.215657795744       0.060972069556      18.020233680749
      2030    1       26.993736443232       1.804619338510      18.076404895068
      2031    1       25.147604610206       1.830896032998      19.754609877789
      2032    1       27.079465845667      -0.022369967049      19.848531354408
      2033    1       28.825947011416      -0.076898530377      17.940875080748
      2034    1       30.575787779034       1.842603373325      18.067260243382
      2035    1       28.841618451610       1.862846018069      19.762506987463
      2036    1       30.657044672813      -0.078202374243      19.792500727986
      2037    1       32.317391935285      -0.070978494330      17.942767521546
      2038    1       34.161602197067       1.877276251342      17.973232423867
      2039    1       32.378683394475       1.830650176721      19.783087437080
      2040    1       34.120121213031       0.036056972149      19.796024208908
      2041    1        0.044641126186       3.580312511052      17.960557403030
      2042    1        1.756289188457       5.484113861947      18.066195718969
      2043    1        0.044717176827       5.422168116709      19.726869818885
      2044    1        1.823893230158       3.576402360528      19.775750208971
      2045    1        3.523025027097       3.685262094945      18.083334909582
      2046    1        5.355843477656       5.452898091520      17.946909088545
      2047    1        3.517076533640       5.471258081967      19.796985655522
      2048    1        5.405661352541       3.531133222527      19.744376385929
      2049    1        7.119556271683       3.639717638323      17.999586650303
      2050    1        9.053669065619       5.331039472815      17.967734924080
      2051    1        7.151557652879       5.355514989961      19.764270254000
      2052    1        9.032858178009       3.609855585978      19.769256533529
      2053    1       10.876899319703       3.563474001923      18.046239558952
      2054    1       12.644280838944       5.335201202117      17.943481050982
      2055    1       10.847048440930       5.453371026354      19.750116693190
      2056    1       12.620659603978       3.633026891164      19.840961516729
      2057    1       14.338859137057       3.553597175591      18.033282137368
      2058    1       16.197452531578       5.362941536385      18.015202421365
      2059    1       14.455335829378       5.359745068702      19.820424772106
      2060    1       16.231241595359       3.606681465236      19.804071462758
      2061    1       17.959319777575       3.610961935485      18.061575805649
      2062    1       19.752483551106       5.440541817574      17.933905272902
      2063    1       18.025166029336       5.472960213733      19.777895965011
      2064    1       19.799556662687       3.597413665444      19.846420299284
      2065    1       21.628366747978       3.615602126853      17.947180622111
      2066    1       23.406461415324       5.318141455992      18.058890013828
      2067    1       21.558542507401       5.338851368331      19.865334579804
      2068    1       23.422915248538       3.636403715938      19.772931257114
      2069    1       25.200655000213       3.589649934960      18.063791514133
      2070    1       27.044556333742       5.450095425200      18.018803239344
      2071    1       25.282315483709       5.414392357457      19.853247620948
      2072    1       26.992605455093       3.645732088987      19.859552880105
      2073    1       28.815070324918       3.636200902652      17.929347788960
      2074    1       30.516888939260       5.434571674131      17.984831717469
      2075    1       28.806406630885       5.436643223118      19.843143511838
      2076    1       30.580636672952       3.527400523485      19.838992986479
      2077    1       32.401570714665       3.628762684352      18.029090618519
      2078    1       34.137617175087       5.467409722592      18.061412497480
      2079    1       32.476385563685       5.384009713901      19.744014895070
      2080    1       34.261072980102       3.545209028658      19.848735652475
      2081    1       -0.038093743239       7.129804939428      18.086868942756
      2082    1        1.787641307664       8.985336833285      18.041600597394
      2083    1        0.024576353428       9.075219719806      19.881858497062
      2084    1        1.799165887087       7.278650290899      19.824852092594
      2085    1        3.592085387822       7.120155429851      17.924493272691
      2086    1        5.360236039561       9.011221822330      17.967624752592
      2087    1        3.535629482825       9.075223073452      19.743579938307
      2088    1        5.321033597254       7.222524687974      19.813546490555
      2089    1        7.275347830996       7.145990004709      17.922444854940
      2090    1        9.035744122944       9.072385741497      17.935794609973
      2091    1        7.257965035244       8.940105424083      19.748898548179
      2092    1        9.026325945800       7.255875698628      19.800681958886
      2093    1       10.839512191665       7.126952739539      17.981325349841
      2094    1       12.664048083679       8.977416798243      17.962914710795
      2095    1       10.812126820380       9.020935883450      19.822653382756
      2096    1       12.596234809167       7.185481057716      19.722867265342
      2097    1       14.339168748054       7.158259409694      17.949094562601
      2098    1       16.127302582342       9.079001613431      18.000913803275
      2099    1       14.327602212083       8.953409286345      19.822733941256
      2100    1       16.241135649057       7.231217060860      19.868127126647
      2101    1       18.034157546232       7.216387926480      17.958204878862
      2102    1       19.849893726204       8.915578504868      17.919400084865
      2103    1       18.015008902680       8.966399518364      19.812705837865
      2104    1       19.837121178803       7.182720797409      19.781870474431
      2105    1       21.622501263566       7.253290995658      17.978299694933
      2106    1       23.457462986512       9.019383601872      17.946459543439
      2107    1       21.570188389361       9.049095131122      19.830877616342
      2108    1       23.347034416892       7.186449076065      19.793168521447
      2109    1       25.272954102919       7.169436768029      17.958683513841
      2110    1       27.032414987165       9.013819970098      17.984100506669
      2111    1       25.158871302284       8.940354586289      19.864534912181
      2112    1       26.979257692485       7.213318558384      19.868963037716
      2113    1       28.774040226125       7.141609207284      17.969132029011
      2114    1       30.516426996727       8.981342947390      17.920062878817
      2115    1       28.853395207188       9.020704641218      19.826667145932
      2116    1       30.601189267772       7.262013722257      19.726201400584
      2117    1       32.320415788462       7.222051110461      18.022061077581
      2118    1       34.114574403882       8.940490200503      18.069296738856
      2119    1       32.336786877291       8.991687783862      19.865855701543
      2120    1       34.221059927509       7.231407171887      19.739590554936
      2121    1        0.010344139821      10.824978574022      17.990556019766
      2122    1        1.806116921473      12.610743975941      18.084685905878
      2123    1       -0.077714978978      12.638709666369      19.762863664358
      2124    1        1.791865416959      10.806346538738      19.780555335061
      2125    1        3.594921031510      10.718986887269      18.012627949619
      2126    1        5.385591022962      12.686536192301      18.020386043567
      2127    1        3.644249505800      12.607867107771      19.836919749708
      2128    1        5.444509644941      10.827469393561      19.716205134173
      2129    1        7.127678985459      10.724851753826      18.008301191737
      2130    1        8.958702093584      12.653821517697      18.066690997636
      2131    1        7.180487274966      12.588661929024      19.829374585829
      2132    1        8.915592101393      10.734003151314      19.832748225316
      2133    1       10.816510971612      10.802405200264      17.928202879111
      2134    1       12.532474702929      12.546996874833      17.929789303377
      2135    1       10.873172928159      12.520246703591      19.759373320281
      2136    1       12.596896161574      10.879448758171      19.776404496747
      2137    1       14.341301981373      10.785581142746      17.938693057321
      2138    1       16.172133320932      12.667419290411      18.019948202353
      2139    1       14.375626299395      12.578645149324      19.836345540909
      2140    1       16.281403612677      10.816714175574      19.844628141796
      2141    1       17.983472914630      10.886709611863      17.965025063305
      2142    1       19.751429233844      12.568853515812      17.929068856427
      2143    1       18.028087635597      12.568072111496      19.779536134710
      2144    1       19.815892321051      10.829712905755      19.740130716478
      2145    1       21.656471085346      10.777616246373      18.011014795249
      2146    1       23.442893746395      12.568205075838      18.021238186257
      2147    1       21.538552553678      12.649338009350      19.740227540714
      2148    1       23.380190432838      10.757878131032      19.854875515656
      2149    1       25.142671000024      10.765832037947      18.086273306402
      2150    1       27.034661323426      12.526097826416      18.016683289967
      2151    1       25.189161957931      12.677079162916      19.862726615169
      2152    1       27.023530853308      10.715583156874      19.804566123220
      2153    1       28.813392739362      10.719125069926      18.063942559443
      2154    1       30.591115099568      12.632384046790      18.083743808567
      2155    1       28.726973790658      12.632908490905      19.815925507492
      2156    1       30.581798226463      10.735114016959      19.853372125752
      2157    1       32.351447156976      10.882096555836      18.019014527591
      2158    1       34.274667002677      12.633967442859      18.069549288009
      2159    1       32.434102081512      12.555609885547      19.789694628304
      2160    1       34.187344625374      10.857873234450      19.856543097882
      2161    1        0.084720546804      14.398725111670      18.032758375739
      2162    1        1.853624671518      16.250291947793      18.033055119696
      2163    1       -0.021002311810      16.142501180030      19.859858751647
      2164    1        1.797547154332      14.329693750524      19.775672324273
      2165    1        3.636508357398      14.425780890722      17.937590581761
      2166    1        5.359629535769      16.172539999996      18.049392523568
      2167    1        3.644105502614      16.245835340829      19.778408465853
      2168    1        5.473215822527      14.360808681940      19.713895761932
      2169    1        7.172633701108      14.424245909115      18.060177712718
      2170    1        8.918976549892      16.125415510902      17.979325798465
      2171    1        7.260812270649      16.161114601456      19.839386725984
      2172    1        8.926159486216      14.463224379407      19.834806460039
      2173    1       10.747420598145      14.325898415118      18.043082553139
      2174    1       12.600161949161      16.120504387136      17.980363567844
      2175    1       10.768036190209      16.171127995035      19.785448133155
      2176    1       12.584747508831      14.473680104090      19.880698680930
      2177    1       14.380222121630      14.481689962435      18.037923630172
      2178    1       16.159540669592      16.164447611773      18.036574953848
      2179    1       14.384382429899      16.204177605060      19.729972914960
      2180    1       16.187787597186      14.397774061255      19.875612985348
      2181    1       17.916066425053      14.378655696932      18.054502465452
      2182    1       19.814094595452      16.154331561585      18.019572994160
      2183    1       18.054580064622      16.199452395940      19.765313956072
      2184    1       19.825084223343      14.470741720052      19.811693077364
      2185    1       21.532076691857      14.439271209589      17.933946588099
      2186    1       23.462957284962      16.236165202461      17.991698665175
      2187    1       21.533657102178      16.208390011131      19.721100918688
      2188    1       23.347097529176      14.342417024749      19.734427233017
      2189    1       25.247498763087      14.369118640869      17.965503594149
      2190    1       26.948237156548      16.123721932943      18.046897374694
      2191    1       25.283555426588      16.164611424521      19.730210946685
      2192    1       27.016091527484      14.414695579029      19.738380196614
      2193    1       28.780624614760      14.373534775579      18.037384135129
      2194    1       30.573131856504      16.284799475542      18.057033810925
      2195    1       28.874982030111      16.138396684995      19.811500633592
      2196    1       30.542277759863      14.388141555803      19.779516110383
      2197    1       32.326343337106      14.396159723708      18.057846118134
      2198    1       34.272902179100      16.180076793706      17.924688874088
      2199    1       32.361520592961      16.136312257710      19.724707035252
      2200    1       34.179692712129      14.372783555159      19.743989269120
      2201    1        0.019949095264      18.030217868408      17.970829832827
      2202    1        1.819516357632      19.849690774041      17.967141763243
      2203    1       -0.005353408875      19.885805141227      19.807231538559
      2204    1        1.806552015280      17.914629534791      19.776518486023
      2205    1        3.596157434586      17.947479560439      18.068242938437
      2206    1        5.337655152862      19.762334293828      18.073719242965
      2207    1        3.664635334756      19.880380206216      19.792219755736
      2208    1        5.479461626626      17.998527042392      19.867190483583
      2209    1        7.275360639706      18.020114678915      17.974132010149
      2210    1        8.984828241596      19.814779370415      17.970897625876
      2211    1        7.227809068759      19.747981876914      19.776608782819
      2212    1        9.078142449924      18.017053751170      19.786918668065
      2213    1       10.804408860311      18.042861533029      18.005161888089
      2214    1       12.623281234604      19.852796994881      17.997897725622
      2215    1       10.772230802554      19.884824001215      19.878434798618
      2216    1       12.580022698970      17.939368465398      19.798524162307
      2217    1       14.378965068646      18.073854661596      17.983818426197
      2218    1       16.278475950534      19.752277499119      17.959702945500
      2219    1       14.345094197963      19.812760565674      19.765898104518
      2220    1       16.120722466272      17.958248451314      19.732519703985
      2221    1       17.982072893277      17.921831967028      17.991163392855
      2222    1       19.874989532034      19.872612453775      18.070894834674
      2223    1       17.923631470483      19.821710395123      19.869898089173
      2224    1       19.769390521457      18.005728764108      19.874836034283
      2225    1       21.554012196040      18.081987293872      18.060293695162
      2226    1       23.436274055578      19.774893548808      18.071619582552
      2227    1       21.637466776607      19.752131337422      19.723058125319
      2228    1       23.319509220657      17.992206877974      19.777520503554
      2229    1       25.183115436097      18.017067587481      18.074871557053
      2230    1       27.002278626304      19.753380394296      18.080164488987
      2231    1       25.245903363031      19.745972651904      19.808731435155
      2232    1       26.972809171147      18.073527392549      19.833265021907
      2233    1       28.726715736267      17.960220046246      17.998980444451
      2234    1       30.580237875052      19.868603210372      18.061259534832
      2235    1       28.726575008624      19.763938744638      19.798001557402
      2236    1       30.633933832528      18.056543388255      19.745457133735
      2237    1       32.402547606071      17.980901195500      17.929751755647
      2238    1       34.148270168260      19.791299865467      17.929322689685
      2239    1       32.473831174259      19.735404101259      19.848167164492
      2240    1       34.120396865474      18.060886736595      19.778148136110
      2241    1        0.017193870153      21.539600105369      18.081769233465
      2242    1        1.785025213818      23.360953676254      17.963222011429
      2243    1       -0.054836614543      23.480728249757      19.770885764378
      2244    1        1.846266686443      21.621075017472      19.760273897573
      2245    1        3.604509597103      21.562421045346      18.033466690700
      2246    1        5.404599796165      23.332242792088      17.988846745273
      2247    1        3.542844733805      23.326024495319      19.733455420046
      2248    1        5.463738140145      21.683647288727      19.773148198015
      2249    1        7.179993203690      21.530693548961      18.001499824774
      2250    1        8.926669823320      23.423245147013      17.945734313326
      2251    1        7.268766929323      23.363233736402      19.872613523735
      2252    1        8.951269815662      21.604218257662      19.866050083111
      2253    1       10.770132178778      21.647418475617      17.963906760009
      2254    1       12.532258682014      23.468570020588      18.053388766949
      2255    1       10.732726332831      23.357224137262      19.754557015265
      2256    1       12.596191757633      21.599377398641      19.751185073984
      2257    1       14.327523569720      21.606685653662      18.019048511882
      2258    1       16.143023632142      23.346115473196      17.977858648091
      2259    1       14.423359115611      23.446854054860      19.749040403682
      2260    1       16.274342303239      21.629000910041      19.838049512189
      2261    1       17.958719022125      21.528618536040      17.996462156860
      2262    1       19.786401283935      23.368109709509      18.064655827780
      2263    1       18.025817451365      23.323221714680      19.808581694794
      2264    1       19.777039095641      21.630946324271      19.792234907551
      2265    1       21.526509606345      21.632686126339      17.928336876999
      2266    1       23.424892049478      23.398212065732      18.065952234806
      2267    1       21.598755128508      23.479742958702      19.878593224070
      2268    1       23.413460447445      21.600753372461      19.886580298427
      2269    1       25.131931716663      21.656736475961      18.045779045719
      2270    1       27.007171491243      23.407992139356      17.930964412776
      2271    1       25.126870654138      23.406457022813      19.741022681917
      2272    1       27.077509214569      21.517851366294      19.833739270632
      2273    1       28.741341439260      21.648158679030      18.030137988890
      2274    1       30.643142290735      23.323696526179      17.969693306768
      2275    1       28.734068559408      23.342061905332      19.727655398218
      2276    1       30.536165000088      21.588010243069      19.727988898238
      2277    1       32.452579985175      21.645520914806      18.052850374150
      2278    1       34.244689415243      23.425300142604      17.955474101121
      2279    1       32.472578835326      23.454900962897      19.756184129692
      2280    1       34.267516729902      21.655208479686      19.869704334430
      2281    1       -0.084007248779      25.173701562895      17.950076762205
      2282    1        1.746549194402      27.048936329576      18.013432106717
      2283    1       -0.059084226216      26.938326670116      19.820883989325
      2284    1        1.821800175888      25.192973335758      19.864986128643
      2285    1        3.621353703587      25.156888828387      17.975929882125
      2286    1        5.484917801472      27.057781795764      18.078842689111
      2287    1        3.666605483688      27.004933160327      19.802123165964
      2288    1        5.456162068139      25.209376845154      19.837640953243
      2289    1        7.152467368039      25.282425898304      18.049903996357
      2290    1        9.003691062268      27.022987107676      18.073896215091
      2291    1        7.207773395594      27.052742404712      19.882099920474
      2292    1        8.942313964857      25.197094582888      19.808367536809
      2293    1       10.742591485216      25.221094303067      17.974328671400
      2294    1       12.514585456431      27.016417892193      18.075729896574
      2295    1       10.860911952600      26.986572269714      19.745262055365
      2296    1       12.531880980517      25.245748336463      19.878122719853
      2297    1       14.323017649666      25.131408630442      18.078547848829
      2298    1       16.120804663678      27.077710551416      17.943959640657
      2299    1       14.432455102489      26.929692318150      19.809638850510
      2300    1       16.204372910940      25.191216162809      19.851808258705
      2301    1       18.053245016197      25.157025636074      18.086421130191
      2302    1       19.861444674404      26.951258065433      18.054229026523
      2303    1       17.955195240925      27.058975072775      19.866436639906
      2304    1       19.801286127003      25.254888653050      19.865064490468
      2305    1       21.677948855018      25.234896795139      17.995726835348
      2306    1       23.376942411549      27.044548802257      18.039357679258
      2307    1       21.612361850838      26.927417508553      19.849943629455
      2308    1       23.441875488055      25.202758872123      19.812209126474
      2309    1       25.211678952787      25.286599361025      17.972079365386
      2310    1       27.018332959622      26.925231713299      18.013524607643
      2311    1       25.190429583587      27.027373089438      19.740000606441
      2312    1       26.950170707466      25.226002348943      19.794217275190
      2313    1       28.716537858202      25.186584800944      18.055239537581
      2314    1       30.519691475083      26.953773958611      18.042645671496
      2315    1       28.879043590422      26.949456081148      19.739740079439
      2316    1       30.678152746606      25.188553429527      19.736127522001
      2317    1       32.344632150408      25.222246133222      18.041031299837
      2318    1       34.192268141665      26.968301466608      18.062628256647
      2319    1       32.373797159008      27.077630206961      19.721257163488
      2320    1       34.176741033244      25.156009922014      19.739869232767
      2321    1       -0.071931649689      28.772189790525      17.983636689347
      2322    1        1.822975098359      30.657283042778      17.957437388498
      2323    1        0.000924565400      30.547646135977      19.791741143985
      2324    1        1.873617646216      28.717890971167      19.852371710184
      2325    1        3.624804810252      28.758607209849      17.915876154457
      2326    1        5.443852357150      30.667030205948      17.962905430043
      2327    1        3.529460167097      30.577155548620      19.834679389515
      2328    1        5.474846779484      28.769792213852      19.854942151141
      2329    1        7.264559402424      28.761684399537      17.975448273004
      2330    1        9.018832751757      30.632793632448      18.062291316208
      2331    1        7.247104864849      30.659056481682      19.814515935381
      2332    1        9.019713600382      28.749026436691      19.739434483920
      2333    1       10.740074502335      28.843372995263      17.972120031156
      2334    1       12.593662113302      30.576707669820      17.975834315565
      2335    1       10.772092743416      30.550761633884      19.839266021633
      2336    1       12.619923692836      28.841743724706      19.747918635290
      2337    1       14.408706056769      28.812166248180      17.969644366430
      2338    1       16.176451131791      30.561250055710      18.026970009234
      2339    1       14.406128748578      30.608815254594      19.884225007081
      2340    1       16.212180967346      28.885177567865      19.792053746411
      2341    1       17.959064136054      28.876190405414      18.021552228658
      2342    1       19.734415782874      30.606724833972      17.918258638028
      2343    1       18.075005663313      30.683932597286      19.848781107675
      2344    1       19.852941453266      28.737289855993      19.839126572693
      2345    1       21.545264679500      28.774729369438      17.958868340267
      2346    1       23.389425529222      30.656066750366      18.014407678357
      2347    1       21.624553326291      30.606047725695      19.746913194275
      2348    1       23.362634019554      28.873594662462      19.833779286909
      2349    1       25.226143741334      28.815188336599      18.018780451280
      2350    1       27.060071305240      30.594509750468      18.064961417689
      2351    1       25.125378108139      30.605733361278      19.873830494134
      2352    1       26.949863794354      28.720023965565      19.735099056707
      2353    1       28.869274795399      28.850846888554      17.934751589125
      2354    1       30.671482648671      30.659110729121      17.926362896450
      2355    1       28.857130800452      30.594321252171      19.796561840125
      2356    1       30.630130637298      28.747622178345      19.747460537922
      2357    1       32.371136852776      28.755874941283      18.084046364565
      2358    1       34.188811132363      30.528168602122      17.982928335411
      2359    1       32.364516518583      30.561845468926      19.785507162944
      2360    1       34.227408736596      28.762941538861      19.849861765483
      2361    1        0.008218330782      32.391842287280      17.960476444739
      2362    1        1.749296161837      34.174030036995      18.038767664311
      2363    1        0.056190682660      34.127072116935      19.724646707791
      2364    1        1.840421192600      32.467621912777      19.824568310404
      2365    1        3.668674243379      32.318879597898      17.974025760045
      2366    1        5.475416775936      34.162405250184      18.000268241213
      2367    1        3.552721403212      34.265994450666      19.859299179621
      2368    1        5.327075850354      32.437519739815      19.816720993397
      2369    1        7.219211860354      32.364142494756      17.981295059957
      2370    1        9.024643946508      34.261949087905      18.050239825482
      2371    1        7.232922945771      34.181056690319      19.790702560730
      2372    1        9.035973336679      32.464078707259      19.884546169444
      2373    1       10.728844505968      32.325593340225      17.924160772851
      2374    1       12.644303175738      34.173399405322      17.995192971102
      2375    1       10.791132396375      34.246282848351      19.715784872138
      2376    1       12.537211285894      32.390156364580      19.815874699563
      2377    1       14.370982216888      32.385178027916      18.007270933157
      2378    1       16.201674992562      34.144069563249      18.069856328114
      2379    1       14.317731675809      34.177970639762      19.746442136794
      2380    1       16.124948894446      32.445032565010      19.793434505248
      2381    1       17.922673257120      32.434698052375      17.979113528091
      2382    1       19.868492852015      34.241419599671      18.067349456079
      2383    1       17.989661052260      34.246746587572      19.870300980305
      2384    1       19.805061984131      32.332804652570      19.862441685774
      2385    1       21.558238342111      32.336468233007      18.020755456313
      2386    1       23.358834152858      34.216669502348      18.059164017636
      2387    1       21.534542454412      34.135880599914      19.761831795190
      2388    1       23.405194538432      32.378950217355      19.765548392951
      2389    1       25.225216317007      32.348053533959      18.072631937799
      2390    1       26.952847794098      34.258447055487      18.001884784295
      2391    1       25.141293400176      34.195880238996      19.792517131256
      2392    1       26.945034559930      32.377858816169      19.724601655853
      2393    1       28.853419550434      32.445172775192      17.937584531745
      2394    1       30.529856100411      34.151071078806      18.038391670581
      2395    1       28.817826426438      34.175652803825      19.880740853132
      2396    1       30.564717706759      32.345049377623      19.786904790185
      2397    1       32.477977770403      32.341529883258      18.005992421620
      2398    1       34.281739446513      34.224903033484      18.072217172977
      2399    1       32.470347101089      34.266849163620      19.724308675560
      2400    1       34.243171445047      32.333734251067      19.796797011487
      2401    1        0.044677850213       0.006521082789      21.559488198609
      2402    1        1.856721114376       1.719136161129      21.677971520095
      2403    1       -0.054862221675       1.829162925339      23.460544858752
      2404    1        1.764741252881       0.068774294453      23.459851632062
      2405    1        3.545260458993      -0.070903828131      21.611036594354
      2406    1        5.422931457867       1.743531572459      21.667440724310
      2407    1        3.530485034996       1.836259903173      23.444596177291
      2408    1        5.439284361740      -0.023486927357      23.476145981018
      2409    1        7.248795493444      -0.049904410801      21.597557712326
      2410    1        8.924236887626       1.806243088919      21.571662207978
      2411    1        7.276614780279       1.843642814666      23.433951475399
      2412    1        9.014037811250      -0.041680615935      23.438757266429
      2413    1       10.862163107080      -0.019317069794      21.661893414645
      2414    1       12.670303456275       1.877075961969      21.549757751354
      2415    1       10.724177900915       1.719916357114      23.433342061771
      2416    1       12.675463811930      -0.057013826160      23.408471408673
      2417    1       14.325386621444      -0.048591587698      21.648344412077
      2418    1       16.174389441660       1.878728943647      21.678351437841
      2419    1       14.366744039151       1.794532592769      23.458333175597
      2420    1       16.215821132282      -0.044900731354      23.418457569041
      2421    1       18.073244072841      -0.081315153447      21.679872562546
      2422    1       19.770795395395       1.790450790673      21.657047272984
      2423    1       17.968426382815       1.798096746174      23.462631276282
      2424    1       19.862052059604      -0.073153081400      23.467868364257
      2425    1       21.679930352506      -0.021384181211      21.577959264257
      2426    1       23.419338416836       1.820837415315      21.517890161911
      2427    1       21.526883243834       1.856268200505      23.340856474608
      2428    1       23.360277513829      -0.074965301412      23.406794595475
      2429    1       25.158141525835      -0.022811498169      21.628185938295
      2430    1       26.968602243705       1.799112568691      21.572816342643
      2431    1       25.168663694667       1.866643641658      23.382079254687
      2432    1       27.063134587630      -0.060115293821      23.345899624393
      2433    1       28.776319464340      -0.044748761098      21.675298847005
      2434    1       30.596244330930       1.803210818501      21.593557940265
      2435    1       28.879136384550       1.789119353404      23.457930585707
      2436    1       30.683198616649       0.012598890098      23.323986136632
      2437    1       32.371421520913      -0.037510112806      21.515065650565
      2438    1       34.255420339772       1.779164277850      21.620071320094
      2439    1       32.354133159801       1.878705704931      23.416405426339
      2440    1       34.232004812326      -0.080839121555      23.322337876090
      2441    1        0.052005111156       3.656017508335      21.562089257794
      2442    1        1.716577711207       5.375802347580      21.532705352008
      2443    1        0.063474888593       5.469821944115      23.387176822972
      2444    1        1.872319776984       3.677246735799      23.460217231341
      2445    1        3.582393224555       3.615141302559      21.597625645343
      2446    1        5.411952639852       5.318775068883      21.585344080244
      2447    1        3.606980490064       5.457658542808      23.331887832662
      2448    1        5.329049731473       3.614727409573      23.432601026442
      2449    1        7.242795856133       3.667018480691      21.587148537282
      2450    1        8.993673303506       5.326502222445      21.677778887368
      2451    1        7.240138725664       5.324526675889      23.441757884681
      2452    1        8.998489224163       3.630741280026      23.386130818995
      2453    1       10.760455737814       3.660919908981      21.616235120866
      2454    1       12.596655207383       5.455042317672      21.607573905298
      2455    1       10.873248217714       5.434030991482      23.334894560626
      2456    1       12.680928874793       3.561411619571      23.439190837684
      2457    1       14.415770656148       3.580772610625      21.612508938994
      2458    1       16.273826651627       5.448212833629      21.684546746981
      2459    1       14.479984648548       5.477440979224      23.406336375476
      2460    1       16.164564042572       3.642661226288      23.477552073257
      2461    1       18.052802944264       3.636887596407      21.670544435425
      2462    1       19.834535424754       5.338271505231      21.613036073872
      2463    1       17.977463366923       5.387367742814      23.390381469583
      2464    1       19.876506119314       3.529992023195      23.467491222556
      2465    1       21.647487562098       3.527338402051      21.515068374704
      2466    1       23.454008486229       5.379827013035      21.594819502800
      2467    1       21.608989507287       5.370529959321      23.341073286952
      2468    1       23.467753560536       3.659868070832      23.434433930237
      2469    1       25.192273737752       3.651322997671      21.563656609055
      2470    1       27.079496012097       5.404456289688      21.605481830362
      2471    1       25.159744009487       5.409814058572      23.455634690782
      2472    1       26.969021730318       3.646608913095      23.382531535017
      2473    1       28.853701725214       3.539796612873      21.612175863025
      2474    1       30.684602450957       5.328378880995      21.533054418349
      2475    1       28.729383895575       5.472856672839      23.348746659021
      2476    1       30.686516994547       3.604406932863      23.374759969524
      2477    1       32.452957899950       3.605317782676      21.573845125057
      2478    1       34.162228494419       5.321462638336      21.560314924999
      2479    1       32.365132438975       5.342123767410      23.361025931674
      2480    1       34.133344550381       3.595185027081      23.459213802662
      2481    1        0.083546579515       7.184812882408      21.525308125446
      2482    1        1.809429924818       8.983041518960      21.544599325574
      2483    1       -0.019903917023       9.034234772432      23.468304643327
      2484    1        1.739659207051       7.171680194046      23.371714671821
      2485    1        3.550484846010       7.273590225828      21.632132690284
      2486    1        5.351377888084       8.981473977020      21.541575082479
      2487    1        3.649213739916       8.932995445827      23.483775430105
      2488    1        5.382313430382       7.162297987933      23.455734285519
      2489    1        7.123005436907       7.254416038475      21.613556955513
      2490    1        9.072928006182       8.960048129651      21.675725458271
      2491    1        7.255847435916       9.005538233832      23.384672406929
      2492    1        8.919663691064       7.221093076927      23.321181068961
      2493    1       10.732719563482       7.229029657475      21.616377055013
      2494    1       12.593690795496       8.988760974153      21.593927155215
      2495    1       10.754091651291       8.995230188160      23.467464049427
      2496    1       12.679587311080       7.156692121319      23.449792361347
      2497    1       14.475868378288       7.204640385596      21.586449608597
      2498    1       16.285800394825       9.007203167662      21.627962325831
      2499    1       14.411239799061       8.939912949864      23.322298586854
      2500    1       16.219155711921       7.149258512968      23.349833069105
      2501    1       17.985611392278       7.197853669855      21.668949626938
      2502    1       19.844933274923       9.021548947476      21.666431721840
      2503    1       17.914368606686       9.024584701295      23.335802915190
      2504    1       19.805764718742       7.116299326002      23.343937072377
      2505    1       21.543253557891       7.243380285425      21.555358065572
      2506    1       23.378904206722       8.917261808154      21.645754913232
      2507    1       21.653050283048       8.916672007591      23.458898232927
      2508    1       23.364508659807       7.147478861332      23.458793926284
      2509    1       25.164957784129       7.177620694805      21.567673474845
      2510    1       26.968539372029       9.025555666563      21.582466091746
      2511    1       25.166043428264       8.982677251810      23.372143184973
      2512    1       27.037858425243       7.241323181825      23.463242410701
      2513    1       28.878879892436       7.224191519444      21.580465658936
      2514    1       30.669755789805       9.047161667966      21.677708447176
      2515    1       28.788889850190       8.917778226298      23.440338029929
      2516    1       30.543307743479       7.274640592528      23.435362875589
      2517    1       32.478212551901       7.130302398346      21.639129918988
      2518    1       34.154470440210       9.006265587940      21.515711858843
      2519    1       32.414783123316       9.008511578848      23.430007798941
      2520    1       34.286028264107       7.261842729362      23.476452125222
      2521    1       -0.027327743724      10.825966249564      21.628624549307
      2522    1        1.768994502891      12.679937615069      21.625913226158
      2523    1       -0.050515181897      12.620607261358      23.335104113684
      2524    1        1.845254486466      10.817254074915      23.422827409751
      2525    1        3.613329892174      10.844369624010      21.527061076961
      2526    1        5.467506140356      12.655652168995      21.635959680910
      2527    1        3.662976454726      12.515074433417      23.347286902990
      2528    1        5.467450970247      10.872189346197      23.451085637415
      2529    1        7.181090508458      10.793087850546      21.612944306063
      2530    1        8.931460428288      12.541072146624      21.686865921503
      2531    1        7.207311023016      12.552631816143      23.458348175684
      2532    1        9.033867847011      10.802988266339      23.366919017342
      2533    1       10.814492466730      10.765437735733      21.656116106596
      2534    1       12.602762572326      12.540179134261      21.628152376096
      2535    1       10.813804475951      12.580055447463      23.383735054832
      2536    1       12.668363515974      10.772512058756      23.474836507708
      2537    1       14.343281678841      10.766460882561      21.573125984571
      2538    1       16.266583181814      12.671147522756      21.587168371330
      2539    1       14.443201412764      12.582956551812      23.325347648314
      2540    1       16.170574782756      10.724623135340      23.414395683455
      2541    1       18.001719752173      10.833213628719      21.575786088372
      2542    1       19.757266120376      12.601243994488      21.682292746246
      2543    1       18.011584135411      12.668060527704      23.472877341147
      2544    1       19.760719166533      10.752773692837      23.376745883524
      2545    1       21.631629250390      10.846603420730      21.650360612747
      2546    1       23.472674947895      12.612713095231      21.637903670943
      2547    1       21.614627288311      12.591210438180      23.456696856594
      2548    1       23.315879739860      10.746077603566      23.433312636027
      2549    1       25.192898724653      10.718417550612      21.588353572918
      2550    1       27.081293820769      12.646830480169      21.570374308432
      2551    1       25.233021802190      12.537379784523      23.366648641001
      2552    1       26.929373470428      10.721913462387      23.442711911856
      2553    1       28.851582358744      10.752486065791      21.593058590019
      2554    1       30.654138992059      12.537778004404      21.631734845531
      2555    1       28.719436641879      12.576448422887      23.329207380686
      2556    1       30.657220626946      10.740036363314      23.398441754911
      2557    1       32.348767235113      10.858580355890      21.581116864609
      2558    1       34.191320088995      12.651172501744      21.564218109145
      2559    1       32.361311607641      12.668319698302      23.404777395466
      2560    1       34.216889850018      10.715738102054      23.353449020076
      2561    1        0.057302039255      14.447923309036      21.623422344843
      2562    1        1.759731911930      16.149657813341      21.677043351992
      2563    1        0.059046624311      16.129835800730      23.452590190371
      2564    1        1.880147519254      14.327588135525      23.462328632171
      2565    1        3.515267766389      14.313753260391      21.556471203164
      2566    1        5.377344106210      16.258086709527      21.663603352575
      2567    1        3.559251210665      16.232879441826      23.461138861725
      2568    1        5.452014671006      14.457301897895      23.459437856723
      2569    1        7.231957019595      14.468231845698      21.576029476484
      2570    1        8.914239253773      16.191149977859      21.521989181033
      2571    1        7.143125498907      16.282498477293      23.467955573761
      2572    1        9.086064944836      14.448500698157      23.467753366518
      2573    1       10.782446297885      14.362052863012      21.531224930083
      2574    1       12.598907381412      16.249657310284      21.648354379837
      2575    1       10.836976664974      16.218744886238      23.442573488371
      2576    1       12.650445724815      14.347757216337      23.402303321300
      2577    1       14.371460645230      14.367407851195      21.575875074221
      2578    1       16.161454053873      16.160847696059      21.559526771468
      2579    1       14.435814040698      16.157990866105      23.414547171590
      2580    1       16.279628997341      14.400839810984      23.356035214587
      2581    1       18.050709112208      14.405058713114      21.594702610220
      2582    1       19.736150751852      16.162712962050      21.667206474926
      2583    1       18.040780082975      16.120283858709      23.417503753884
      2584    1       19.761879286737      14.485022559166      23.423858850837
      2585    1       21.559257711779      14.403529209912      21.635051010548
      2586    1       23.430425892619      16.148084032842      21.517572327864
      2587    1       21.567668639019      16.170362579798      23.333587069186
      2588    1       23.479078803381      14.479856181605      23.448839798660
      2589    1       25.283298242878      14.392512316344      21.588172919638
      2590    1       27.060612330937      16.236562544307      21.630325091114
      2591    1       25.260347590524      16.202354365806      23.424320824016
      2592    1       27.017224851776      14.331155667861      23.402012645408
      2593    1       28.879170344961      14.483202282600      21.663055081112
      2594    1       30.579570258230      16.155637248918      21.618491244417
      2595    1       28.717496511384      16.138525297703      23.412222399484
      2596    1       30.624253897951      14.313709331761      23.430443572671
      2597    1       32.389224360715      14.398369972459      21.595015283840
      2598    1       34.133632056632      16.179018874761      21.583507998662
      2599    1       32.347068719511      16.115307075890      23.416114500360
      2600    1       34.273388482654      14.440248820034      23.372732890572
      2601    1        0.084854325591      18.057866916338      21.669686201731
      2602    1        1.784880142945      19.770815871978      21.637603006766
      2603    1       -0.067504870023      19.797810697357      23.327244105169
      2604    1        1.721855291607      18.010692081960      23.434645570243
      2605    1        3.612303716920      18.050662963561      21.580735173565
      2606    1        5.458025647494      19.795530297884      21.581593113680
      2607    1        3.564935220319      19.785477077767      23.448978066916
      2608    1        5.405216712177      17.957701789098      23.340064433798
      2609    1        7.192741587344      17.976762799356      21.557934772929
      2610    1        9.023891198002      19.842477343972      21.630874965690
      2611    1        7.252893936868      19.786472876546      23.417575830314
      2612    1        9.082317555481      17.991562586606      23.313788721267
      2613    1       10.849343942477      17.978435470375      21.596824902355
      2614    1       12.525427509242      19.831831773096      21.566406375218
      2615    1       10.871631210505      19.806019911984      23.450892943437
      2616    1       12.669994728290      17.946043471005      23.362467420720
      2617    1       14.386349847625      18.085585569323      21.643910351368
      2618    1       16.258381713182      19.793532064787      21.522449757328
      2619    1       14.437728826389      19.871279794754      23.408125253441
      2620    1       16.238348604244      18.083244614046      23.459753188097
      2621    1       17.953838220097      18.085085173000      21.516832793939
      2622    1       19.775036647755      19.813551922545      21.600509172558
      2623    1       18.064278453573      19.807628025691      23.347585276813
      2624    1       19.873515030216      18.069481480249      23.471652069463
      2625    1       21.662775939345      18.055842179266      21.595193329874
      2626    1       23.356052258692      19.857487528165      21.593315744985
      2627    1       21.560571268491      19.805091550729      23.332784596315
      2628    1       23.354339208248      17.969783447128      23.461476869967
      2629    1       25.226508512504      17.991469073233      21.531474281615
      2630    1       26.988123803432      19.824051375635      21.561326549406
      2631    1       25.136754190660      19.875849061296      23.373327703777
      2632    1       27.054885491373      18.038023414426      23.351664686194
      2633    1       28.824662065085      17.987193331487      21.585171798745
      2634    1       30.601272683280      19.803755408804      21.521086175623
      2635    1       28.852110251764      19.858996844706      23.474566245854
      2636    1       30.532188047867      17.915167638125      23.424560620792
      2637    1       32.348391432382      18.084993398164      21.570271845241
      2638    1       34.140296975970      19.845188107232      21.570087166232
      2639    1       32.377443112990      19.797366991694      23.454805145443
      2640    1       34.197657349956      17.941478298142      23.353836405063
      2641    1       -0.004377639307      21.563662976431      21.532719727266
      2642    1        1.800374777162      23.351930294152      21.575074982627
      2643    1        0.019050938199      23.448556963670      23.449153606186
      2644    1        1.781417806041      21.514509108166      23.319695772056
      2645    1        3.594837095436      21.588468594928      21.534851559091
      2646    1        5.347349794136      23.386713432962      21.569413535969
      2647    1        3.625735592094      23.465188776174      23.436154591626
      2648    1        5.319211012208      21.627158129569      23.482397201702
      2649    1        7.147467916806      21.663313107426      21.661744039904
      2650    1        8.938049621108      23.359431798932      21.563563939654
      2651    1        7.253194759054      23.377499134525      23.353151329033
      2652    1        8.931102923774      21.555092609944      23.414444093359
      2653    1       10.785806407946      21.657487106103      21.548348121199
      2654    1       12.589137125324      23.466454935865      21.618559837761
      2655    1       10.745855638905      23.466661972117      23.398079846374
      2656    1       12.649943715624      21.607882713662      23.387631610255
      2657    1       14.475103967457      21.532074764253      21.538733085766
      2658    1       16.193970499557      23.430205497750      21.579410982045
      2659    1       14.329910479947      23.328850233139      23.405962743544
      2660    1       16.199815122110      21.607600691310      23.377659625895
      2661    1       17.983205558130      21.565937172368      21.548733581281
      2662    1       19.873263459285      23.362807432620      21.600633106107
      2663    1       17.953611380774      23.404744963018      23.362737328058
      2664    1       19.809951103320      21.655443382582      23.439427763438
      2665    1       21.667853665420      21.682996509887      21.665472335898
      2666    1       23.390116364271      23.318909883926      21.682574977507
      2667    1       21.678949356184      23.325168673498      23.379902968141
      2668    1       23.352011751020      21.686420548324      23.424068020696
      2669    1       25.120977976424      21.597758544637      21.560526897598
      2670    1       27.000693811446      23.375188751598      21.659709052007
      2671    1       25.206360538598      23.322006836905      23.383745352444
      2672    1       27.027751655413      21.624103591641      23.444704097256
      2673    1       28.803540708019      21.564314735228      21.656824244719
      2674    1       30.665167459458      23.398608145794      21.550655837426
      2675    1       28.750926436820      23.460241176960      23.385023587240
      2676    1       30.520577562530      21.622396651393      23.322551718848
      2677    1       32.336131233399      21.520462580637      21.618562871843
      2678    1       34.223378356923      23.328232839854      21.671183100477
      2679    1       32.370441155227      23.437869360921      23.408397576519
      2680    1       34.265241057250      21.637999890626      23.421662436093
      2681    1        0.014715468721      25.175442291171      21.673285569126
      2682    1        1.879745064279      26.915050553956      21.517746663574
      2683    1       -0.076291787424      26.939051437308      23.399241862093
      2684    1        1.880087057926      25.140565859568      23.439263699132
      2685    1        3.534371264554      25.114851183965      21.592986505122
      2686    1        5.482206669702      27.066843563431      21.542246625415
      2687    1        3.646249260969      27.067159247362      23.375914337140
      2688    1        5.313552328039      25.274636977418      23.352173897984
      2689    1        7.163838546028      25.174826068563      21.553719713449
      2690    1        9.063719812999      26.979036618027      21.515153353863
      2691    1        7.261760398703      26.925071155341      23.432512846897
      2692    1        8.978154142454      25.272861050417      23.334544601989
      2693    1       10.743036258648      25.232455384264      21.546241456019
      2694    1       12.555506163972      27.009442320037      21.685900230122
      2695    1       10.764950582727      26.986219024073      23.476352216856
      2696    1       12.684476366655      25.232626329775      23.428919579396
      2697    1       14.375192449524      25.155337179479      21.564150186940
      2698    1       16.276015565953      27.031139432532      21.596359925960
      2699    1       14.360296498213      27.058628011807      23.462924321767
      2700    1       16.135755764447      25.242079303403      23.344697845245
      2701    1       18.037685180026      25.213420462684      21.609670497613
      2702    1       19.835479420470      26.957879382848      21.683555815279
      2703    1       18.008951494539      26.974058664942      23.361168521307
      2704    1       19.865426487117      25.159176822255      23.366530599661
      2705    1       21.605305145379      25.142472338441      21.681805233668
      2706    1       23.445637195095      27.062445435492      21.572931724683
      2707    1       21.629838754975      27.005283673018      23.468197083253
      2708    1       23.351874700024      25.192760758211      23.322009807311
      2709    1       25.141016614128      25.121370211585      21.575904686586
      2710    1       27.029936290338      26.922884419123      21.536438884920
      2711    1       25.214410892578      26.962145675506      23.363394065560
      2712    1       26.936727153274      25.153793516486      23.327145077321
      2713    1       28.753721206420      25.172683354822      21.676565552885
      2714    1       30.614828325820      26.950010551602      21.559193040286
      2715    1       28.743647372838      26.926420425170      23.339337690599
      2716    1       30.675830230991      25.226512103610      23.413969926746
      2717    1       32.486323703136      25.279346342694      21.684508397057
      2718    1       34.195426508642      27.067555275223      21.665137102539
      2719    1       32.362513934278      27.016964756095      23.316438202044
      2720    1       34.214551479709      25.177513339458      23.412373770940
      2721    1        0.027250063990      28.817988439399      21.676403289704
      2722    1        1.846391860478      30.661452777271      21.625478486377
      2723    1        0.059615606970      30.626173562774      23.326589179368
      2724    1        1.860651782520      28.715614194926      23.388035979603
      2725    1        3.539601489135      28.721449529599      21.535777848805
      2726    1        5.375831952427      30.631840168313      21.678848762023
      2727    1        3.592543044542      30.585476337226      23.412167566141
      2728    1        5.459338274390      28.882828515940      23.356582393530
      2729    1        7.191011156537      28.845079298881      21.605468494730
      2730    1        9.042296406991      30.609966628212      21.678207327767
      2731    1        7.201315408917      30.684714663186      23.415690384205
      2732    1        8.991682256392      28.734500775825      23.324263931097
      2733    1       10.720662451670      28.753701222391      21.538066486534
      2734    1       12.569784402704      30.682223183062      21.566974812214
      2735    1       10.863669347141      30.660811444965      23.412447524424
      2736    1       12.683095339573      28.769168112161      23.314621159029
      2737    1       14.378990828678      28.823437180217      21.580034326524
      2738    1       16.151756308025      30.596219177641      21.663681499885
      2739    1       14.433867029538      30.559939779737      23.363879387284
      2740    1       16.157105505317      28.806100152743      23.485385021201
      2741    1       18.027196812228      28.800384487431      21.583588462782
      2742    1       19.880289525256      30.529094468170      21.521168143695
      2743    1       17.941224450425      30.650322631979      23.374775506298
      2744    1       19.735678130223      28.791789768344      23.411863019145
      2745    1       21.652845044639      28.719482882142      21.542966458611
      2746    1       23.409658295762      30.589720234532      21.636103920205
      2747    1       21.663462580546      30.614246267560      23.480659367248
      2748    1       23.437073902648      28.728984191742      23.415843369565
      2749    1       25.217389798382      28.854985789211      21.581233054257
      2750    1       26.994051143806      30.521929175937      21.666532707012
      2751    1       25.257301883553      30.531605919378      23.436420816487
      2752    1       26.941111418811      28.833565447900      23.358429974676
      2753    1       28.770399185027      28.780081004816      21.528510926780
      2754    1       30.528855303180      30.558622138896      21.541992752464
      2755    1       28.824312370073      30.534514498003      23.340585280196
      2756    1       30.599189772534      28.827809388175      23.317915892865
      2757    1       32.406629860801      28.748095749718      21.668155702035
      2758    1       34.277332323795      30.543868903715      21.575694058501
      2759    1       32.412977717431      30.575796888621      23.477022869724
      2760    1       34.249646818532      28.768695199009      23.414687140955
      2761    1        0.011249577626      32.389902280982      21.614793751950
      2762    1        1.819862769810      34.194760577262      21.686404881438
      2763    1        0.058472612622      34.211327192353      23.440277155799
      2764    1        1.835372450942      32.351711035959      23.415618762277
      2765    1        3.548045843311      32.464227853628      21.566901473263
      2766    1        5.469802388835      34.279508943863      21.679201229580
      2767    1        3.651429110881      34.134217466812      23.314578297112
      2768    1        5.436983845479      32.327716254036      23.359545442786
      2769    1        7.153237777673      32.385826283988      21.603227942986
      2770    1        9.065066489336      34.169631140518      21.555392474117
      2771    1        7.248659478394      34.180184105305      23.443481329243
      2772    1        8.935043196795      32.351121421511      23.365211185295
      2773    1       10.829736791792      32.462918836773      21.603181975339
      2774    1       12.560513386605      34.256702360290      21.599171925581
      2775    1       10.720896960654      34.179739425369      23.331787480814
      2776    1       12.671827148349      32.420612815127      23.469392062454
      2777    1       14.335127836066      32.479400622683      21.659406043574
      2778    1       16.252156562305      34.114020381362      21.664451156249
      2779    1       14.357444518577      34.127980364961      23.355927972127
      2780    1       16.237827698556      32.363342888569      23.349235062904
      2781    1       18.070652891971      32.469723948814      21.644613522874
      2782    1       19.731713743800      34.123319036175      21.593796595699
      2783    1       17.962740965557      34.123251480917      23.407512940194
      2784    1       19.790736499424      32.438280395680      23.383246200469
      2785    1       21.553213005865      32.432915683819      21.514626494588
      2786    1       23.353841802659      34.128286419033      21.586383291918
      2787    1       21.528320107863      34.198709455754      23.351597886101
      2788    1       23.396898190226      32.467997220861      23.349263871915
      2789    1       25.158084192328      32.481627038026      21.552266259414
      2790    1       27.050755743909      34.256846836167      21.571413230849
      2791    1       25.130157150000      34.142843281432      23.427401760582
      2792    1       26.941371393059      32.402214692278      23.359333731438
      2793    1       28.787733613691      32.375083503779      21.543049145017
      2794    1       30.660735583360      34.141502650282      21.553330383428
      2795    1       28.878720514668      34.269045017596      23.398465561875
      2796    1       30.623260478642      32.484318617428      23.341861074312
      2797    1       32.369699927747      32.446238108248      21.629067118700
      2798    1       34.187250493797      34.152587758624      21.534579995115
      2799    1       32.376499646162      34.218457914363      23.481085886701
      2800    1       34.214672022107      32.396012556411      23.336424215556
      2801    1        0.076201231449      -0.025634349333      25.174281444675
      2802    1        1.840674106044       1.881576741018      25.253060208201
      2803    1        0.015902478844       1.809085348176      26.965428071023
      2804    1        1.866279615691       0.050658812875      26.990049030658
      2805    1        3.533845711699      -0.051314987752      25.205963794396
      2806    1        5.316539845393       1.817403115289      25.114748619426
      2807    1        3.575647701508       1.741888557423      26.918700358280
      2808    1        5.438637550097       0.041405711968      27.018115530315
      2809    1        7.255286669419      -0.001997349559      25.157723169951
      2810    1        8.923699357142       1.883330443569      25.194198617524
      2811    1        7.220290234314       1.740986102310      26.998967171494
      2812    1        9.083124103189      -0.083700916113      26.952532667312
      2813    1       10.774937288540      -0.029552086439      25.201669855659
      2814    1       12.547715669256       1.845102804280      25.235799572169
      2815    1       10.866442092463       1.877096225363      27.033266538984
      2816    1       12.557229176859      -0.010706290090      26.967569485554
      2817    1       14.319435162140      -0.051671340102      25.228315964635
      2818    1       16.269267953077       1.750017004454      25.228705276006
      2819    1       14.370927017023       1.807009733288      26.929574425039
      2820    1       16.144100199069       0.026806374917      27.036747330536
      2821    1       17.971374319386      -0.035783736829      25.140538433225
      2822    1       19.752535013609       1.812878661673      25.283056738867
      2823    1       18.053127771377       1.807111518735      27.020990411041
      2824    1       19.805649176921      -0.010732361549      27.019105634429
      2825    1       21.532587885224       0.019733488982      25.225128116169
      2826    1       23.450353812765       1.794414328750      25.277455353806
      2827    1       21.522590016122       1.758220678866      27.041786083239
      2828    1       23.426888601185      -0.021750413630      27.042520212118
      2829    1       25.242525943325      -0.071026983500      25.184653179168
      2830    1       26.963660963191       1.777059835423      25.264290749687
      2831    1       25.162876880023       1.817279246609      27.026614123827
      2832    1       27.084487715672       0.003394675856      26.991053555021
      2833    1       28.764055280055      -0.021821994152      25.263448681728
      2834    1       30.650207568379       1.817100758837      25.221701217571
      2835    1       28.733055624078       1.835781254758      27.009712902783
      2836    1       30.588311758426       0.044387700989      27.014956403368
      2837    1       32.381736073494      -0.025555203735      25.141305381795
      2838    1       34.151541720166       1.757796877486      25.231277155728
      2839    1       32.356071095325       1.876626406627      26.967243841490
      2840    1       34.198356836492       0.017457607302      27.074641651459
      2841    1        0.086189452411       3.649268686688      25.257168105838
      2842    1        1.738839229246       5.408462273243      25.185760649282
      2843    1        0.032450523015       5.354333971905      27.020149186918
      2844    1        1.778882638647       3.546440762275      27.015279559182
      2845    1        3.539642507269       3.659499414612      25.286153694980
      2846    1        5.438163754488       5.486733863828      25.211957766457
      2847    1        3.517698476457       5.475486832076      26.931760247935
      2848    1        5.330632737129       3.678628944073      26.973248212334
      2849    1        7.141809585976       3.655233266792      25.237747454629
      2850    1        9.076658956971       5.431188671554      25.200424626145
      2851    1        7.177397277324       5.443205754933      27.030001382791
      2852    1        9.007231431264       3.574187355698      26.926704517089
      2853    1       10.739217357841       3.571506291179      25.117690644791
      2854    1       12.685055132849       5.422760073588      25.147614195550
      2855    1       10.831344525764       5.469932837960      27.044807428571
      2856    1       12.585881335668       3.631724837553      27.054275237405
      2857    1       14.441407056310       3.537914249831      25.140793927938
      2858    1       16.151141582171       5.465787078454      25.252366941245
      2859    1       14.440079763930       5.336912188912      27.046014174262
      2860    1       16.163927718895       3.615419894063      26.966099293380
      2861    1       17.988648559827       3.567230269620      25.150013115324
      2862    1       19.867564553882       5.419946603492      25.229737707511
      2863    1       17.955426069288       5.369935116930      26.919254730860
      2864    1       19.746953266572       3.580990521098      27.000734183903
      2865    1       21.600802830008       3.560860450706      25.228320479515
      2866    1       23.393016948736       5.442478897185      25.136513239588
      2867    1       21.566483638795       5.448168098336      27.027518565493
      2868    1       23.472153293997       3.654844125321      27.062025623531
      2869    1       25.177597377825       3.676380366952      25.224845289089
      2870    1       26.982378917669       5.369323497010      25.116683633255
      2871    1       25.200895030960       5.429139268433      27.084041266047
      2872    1       27.058017614990       3.656096660625      27.012223497508
      2873    1       28.829497673140       3.661782390962      25.242931102925
      2874    1       30.565994190893       5.486691174656      25.195565096924
      2875    1       28.738832864011       5.372754598300      27.080405992669
      2876    1       30.565630583329       3.677940144457      27.016513288618
      2877    1       32.454865605335       3.650959196070      25.162786569325
      2878    1       34.188335747856       5.322676589077      25.247279044519
      2879    1       32.367150454271       5.419054627296      26.949075282381
      2880    1       34.144031865360       3.538302547483      27.034406240672
      2881    1        0.083653172732       7.263745050132      25.215776608842
      2882    1        1.830138445819       8.987100843425      25.189767169198
      2883    1       -0.009287960170       8.989762728504      26.985199053718
      2884    1        1.836025883234       7.162520823358      26.966015697820
      2885    1        3.552376415812       7.240390376091      25.258072422278
      2886    1        5.464586621208       9.045510479743      25.132562979113
      2887    1        3.646464950637       9.022200159983      26.961866129954
      2888    1        5.327704130487       7.121145366697      27.048251363225
      2889    1        7.246282257388       7.165753932139      25.256961439541
      2890    1        8.937754889319       8.932589317894      25.204206708324
      2891    1        7.164001325407       8.932942774732      26.984224344413
      2892    1        8.995930361532       7.175923549904      27.042089659808
      2893    1       10.756794826448       7.174517479888      25.172216491036
      2894    1       12.553628610962       9.051721292962      25.204984536169
      2895    1       10.832856331584       8.980514193658      26.961361208081
      2896    1       12.589604390731       7.217597507360      26.930669782719
      2897    1       14.376890454839       7.263919720045      25.266157466089
      2898    1       16.176319760377       9.008277878225      25.194599827727
      2899    1       14.380809191249       9.047800274786      27.049800397683
      2900    1       16.269991405186       7.121116753833      27.044094031869
      2901    1       18.025550984330       7.262316855045      25.157007710342
      2902    1       19.786649163135       9.041231926179      25.271599423426
      2903    1       17.924402237441       9.072398766204      27.047866948528
      2904    1       19.816629041426       7.188171123366      27.023807226911
      2905    1       21.629609081888       7.203208477343      25.223380978286
      2906    1       23.318138822641       9.084462411570      25.236844554053
      2907    1       21.668917379166       8.997899127378      26.977076118546
      2908    1       23.474693041595       7.235495920046      27.066205004623
      2909    1       25.233118133224       7.131559590021      25.255424486156
      2910    1       26.947758152996       8.975924924258      25.250107423203
      2911    1       25.137575954272       8.975779685269      26.958817240472
      2912    1       26.942400297934       7.274080859872      26.954274774439
      2913    1       28.773679472686       7.258745684975      25.277978426388
      2914    1       30.627826026310       9.064950583664      25.234648754485
      2915    1       28.842413149777       9.047124052773      26.982517227018
      2916    1       30.565526320983       7.223867573811      27.057267909273
      2917    1       32.340008627684       7.189977365453      25.260363900156
      2918    1       34.196740852334       9.049642349713      25.202440886167
      2919    1       32.479000519320       9.063157327302      26.989632698189
      2920    1       34.133761884574       7.278254416658      27.014976417335
      2921    1        0.058803090728      10.727337426604      25.254910806428
      2922    1        1.868510224591      12.591133682339      25.218941991683
      2923    1        0.062720264361      12.554986357266      26.995218945316
      2924    1        1.753876192207      10.782328299412      27.038029049827
      2925    1        3.668662359901      10.800843723561      25.195690724810
      2926    1        5.454417485272      12.679909291737      25.220355649372
      2927    1        3.626758538526      12.575670195337      27.045390254925
      2928    1        5.417446716000      10.816118872896      27.021549937477
      2929    1        7.176891514184      10.791888070567      25.162001727347
      2930    1        8.946469738297      12.545126392719      25.217778017025
      2931    1        7.195488245673      12.592665828585      27.013847903354
      2932    1        8.936417520807      10.754897095464      26.974520420037
      2933    1       10.778865854840      10.778678690424      25.146096869058
      2934    1       12.555177218237      12.608710971756      25.159182988591
      2935    1       10.848674962675      12.531395705053      26.918247689926
      2936    1       12.663717095986      10.806823252410      26.974530326130
      2937    1       14.390086135970      10.843761263907      25.204355701144
      2938    1       16.235901204359      12.554728972026      25.227597031504
      2939    1       14.313615462356      12.570540819853      26.992045340032
      2940    1       16.204018781391      10.802199418032      26.993599303216
      2941    1       17.935084395633      10.787316851308      25.136859574464
      2942    1       19.813598218115      12.671820219168      25.217882571399
      2943    1       18.051251735751      12.666657939243      26.957764474065
      2944    1       19.728907176557      10.764612156020      26.937228512152
      2945    1       21.655597141013      10.837964463543      25.213101615388
      2946    1       23.468446513547      12.662433980159      25.200129222155
      2947    1       21.611471055240      12.625193244487      27.039072132881
      2948    1       23.385107687594      10.758719711307      27.038197532495
      2949    1       25.202772038024      10.721176877561      25.244159853898
      2950    1       27.038262310148      12.607623931755      25.259436727526
      2951    1       25.192753580542      12.620250094441      27.002277226216
      2952    1       27.008831402165      10.716891308387      26.969301396348
      2953    1       28.764818735087      10.822328283606      25.162082653145
      2954    1       30.556944028178      12.643259089990      25.254776893395
      2955    1       28.714880646613      12.521559526370      27.020895247773
      2956    1       30.613992813743      10.793503563350      26.968317113140
      2957    1       32.455272619253      10.812829134055      25.268906493346
      2958    1       34.144827613262      12.598714731607      25.213559618963
      2959    1       32.331194599120      12.633632341982      26.926490215918
      2960    1       34.141563463137      10.862949904281      27.029976536162
      2961    1       -0.042830297582      14.366933196612      25.212569818950
      2962    1        1.851837888820      16.222375488797      25.260714550561
      2963    1       -0.014486084301      16.266098188184      27.004285488033
      2964    1        1.723712242921      14.358360290546      26.960140693617
      2965    1        3.555604278853      14.365036606229      25.126643074391
      2966    1        5.405884158860      16.273637167337      25.117153102830
      2967    1        3.675750089734      16.257190316851      27.079257514077
      2968    1        5.415443943380      14.350001548522      26.969714165842
      2969    1        7.202112807721      14.417017446254      25.179217688608
      2970    1        9.028353411923      16.154559966054      25.169051494830
      2971    1        7.276575903642      16.246796625546      27.085022277890
      2972    1        9.086081980470      14.382480235964      26.977953907728
      2973    1       10.734740777425      14.335769867409      25.238006178260
      2974    1       12.656789411968      16.257110585057      25.206635032732
      2975    1       10.828973742483      16.186237650236      27.050008243235
      2976    1       12.655995248691      14.362529830891      27.043327114163
      2977    1       14.418422906001      14.386140499052      25.146519676289
      2978    1       16.205630745249      16.230373897610      25.118827004458
      2979    1       14.387413992809      16.191668132340      26.929342012189
      2980    1       16.149974832167      14.451804733409      26.999104036479
      2981    1       18.086482807829      14.444683296549      25.229479526498
      2982    1       19.733922337702      16.261364212546      25.231896568775
      2983    1       17.929123805339      16.178718714031      27.057901274437
      2984    1       19.793524329350      14.415160396065      26.935404277811
      2985    1       21.639635974766      14.366003645126      25.127536631624
      2986    1       23.316901293734      16.131116985096      25.173693420687
      2987    1       21.529977172769      16.214314730267      27.041863005103
      2988    1       23.485987860160      14.335752530440      26.968306966086
      2989    1       25.194168605042      14.439243828297      25.162803161063
      2990    1       26.975732793205      16.163316533427      25.200406154205
      2991    1       25.140667860903      16.255715968463      27.031231356435
      2992    1       27.064089461237      14.457416497099      26.989627537758
      2993    1       28.856882157549      14.347380857683      25.247176620039
      2994    1       30.567830940557      16.177404887196      25.133208629410
      2995    1       28.865902373436      16.273177757469      26.938471599917
      2996    1       30.643375539214      14.323915626336      27.070173096260
      2997    1       32.381242293628      14.358913178096      25.191539652439
      2998    1       34.221917407039      16.228951490092      25.127436365931
      2999    1       32.345749149847      16.148955762831      27.085602426292
      3000    1       34.233147354914      14.326826613542      26.926574920655
      3001    1        0.054867107030      17.995673992179      25.205714678605
      3002    1        1.761028868644      19.795065836388      25.285973620522
      3003    1        0.024325856672      19.735245763477      27.022418849868
      3004    1        1.800542054937      18.028353537695      27.015016158349
      3005    1        3.543867384492      17.958278995085      25.138245684665
      3006    1        5.442999033177      19.789027327480      25.135852185710
      3007    1        3.603822948919      19.740654522047      27.041942760987
      3008    1        5.394447820182      18.071600657498      27.064869934517
      3009    1        7.123848808207      18.028290780851      25.210870177520
      3010    1        9.076594302426      19.749834723296      25.193049765863
      3011    1        7.156316717529      19.808748893232      26.931433749777
      3012    1        9.003949645237      17.976552480461      26.950450617410
      3013    1       10.746453746957      17.973028898530      25.139241040773
      3014    1       12.632092899236      19.782048990655      25.232853788838
      3015    1       10.764292670574      19.830453976761      27.006873597174
      3016    1       12.618391249852      18.073309952064      27.055943296230
      3017    1       14.479251763833      17.922382789779      25.250847546341
      3018    1       16.175398177926      19.854981997146      25.210111182734
      3019    1       14.442597623660      19.805251523669      26.961214715488
      3020    1       16.259556091436      18.082262708562      27.020247880638
      3021    1       18.028401968276      17.952217913263      25.142771454984
      3022    1       19.732957752329      19.778624342840      25.145344852782
      3023    1       17.990625108413      19.725901474656      27.010338887588
      3024    1       19.844657587956      18.069968458694      26.995053580237
      3025    1       21.559772591891      17.964924601037      25.200633793673
      3026    1       23.408017260413      19.723411541552      25.219333353207
      3027    1       21.685946672701      19.757854744947      27.086894728533
      3028    1       23.399591826647      18.075920800222      26.918049745413
      3029    1       25.232117921159      17.957275289282      25.278504836758
      3030    1       27.061725344969      19.801931658756      25.196987993396
      3031    1       25.164475891647      19.753357687085      26.931051121391
      3032    1       26.978965703724      17.946781429585      26.984809828979
      3033    1       28.855712427736      17.937452791947      25.198973010057
      3034    1       30.633588079458      19.752830898262      25.227962782984
      3035    1       28.793272993570      19.844723312529      27.056864689086
      3036    1       30.514556543187      18.002575890830      26.993700515040
      3037    1       32.378688477908      17.976168180195      25.223057683280
      3038    1       34.277239710994      19.788465653027      25.214803127657
      3039    1       32.421646047986      19.856044441831      26.946197143355
      3040    1       34.157981704008      17.996925506958      26.945590808102
      3041    1       -0.046447750199      21.680200350330      25.172861626612
      3042    1        1.862375111309      23.358147488482      25.201372907718
      3043    1        0.027329079892      23.467762383449      27.026776203754
      3044    1        1.747041029835      21.665912368904      27.072148487465
      3045    1        3.614535201695      21.636740124253      25.155137145862
      3046    1        5.415266491986      23.326532444191      25.184932298057
      3047    1        3.549147972460      23.483393028469      27.061185833193
      3048    1        5.415630661732      21.567145539176      26.978907542319
      3049    1        7.164274666008      21.595035853504      25.262664484864
      3050    1        9.068429257568      23.427562799858      25.137667702115
      3051    1        7.260569896336      23.466788893930      27.073330175760
      3052    1        8.948787972588      21.583976781645      27.032174425700
      3053    1       10.853279240559      21.607700903788      25.185751922088
      3054    1       12.626210894265      23.407563476839      25.188000268007
      3055    1       10.736902363611      23.375868971431      26.952696551145
      3056    1       12.667081851542      21.524433713344      26.971005090858
      3057    1       14.463003040301      21.520221571631      25.253608729066
      3058    1       16.164319743003      23.358628473934      25.273161661581
      3059    1       14.423461542540      23.341593852722      27.071758217384
      3060    1       16.207100815930      21.585208883676      27.067384473509
      3061    1       17.985179260215      21.590989102186      25.147220136959
      3062    1       19.832187644536      23.469839864063      25.184447156914
      3063    1       17.993727422208      23.391771267138      26.971905548784
      3064    1       19.762949312795      21.515130618913      26.947139729978
      3065    1       21.624913182892      21.523148139691      25.276749101274
      3066    1       23.318225046848      23.351042845732      25.256682452417
      3067    1       21.640899466541      23.321450288158      27.012288457618
      3068    1       23.459250993356      21.552129569071      27.040194315439
      3069    1       25.147790407613      21.552296330276      25.271451815518
      3070    1       27.079540412380      23.331045929945      25.133403868520
      3071    1       25.192795818290      23.351170571119      27.061463356860
      3072    1       27.080562159825      21.567808190339      26.933595483129
      3073    1       28.776745695949      21.623033430844      25.245286998769
      3074    1       30.617024148235      23.439314856330      25.197792448209
      3075    1       28.719448338748      23.390901684824      27.072570373849
      3076    1       30.642866386406      21.674246198317      27.056769468344
      3077    1       32.335338871822      21.569807277986      25.206920880682
      3078    1       34.211813217511      23.454894921146      25.191260939120
      3079    1       32.314414628664      23.345427304625      27.058963281785
      3080    1       34.255448607317      21.608706605795      26.949195534097
      3081    1       -0.043540745337      25.260363874402      25.156919585647
      3082    1        1.727212722731      27.074925124284      25.244391231987
      3083    1        0.023788925647      27.062740634331      26.935847202968
      3084    1        1.825942240901      25.280335920885      26.973843140587
      3085    1        3.549655795780      25.129088184612      25.116888731525
      3086    1        5.378185018434      27.018845381488      25.270534104608
      3087    1        3.684381626429      26.941761045122      27.065266002667
      3088    1        5.314410858250      25.174838256058      26.935377849375
      3089    1        7.232503522220      25.220486958499      25.118563899087
      3090    1        9.047843763984      26.954699546204      25.214596653399
      3091    1        7.171008249618      27.005032290171      27.037288967319
      3092    1        9.013405900774      25.192220640745      27.010050944026
      3093    1       10.755315837970      25.229745752477      25.267825057301
      3094    1       12.514013087321      27.064284507109      25.149449451530
      3095    1       10.825840160646      26.996322249786      26.993359253260
      3096    1       12.602511711329      25.213214092944      27.062907204327
      3097    1       14.331641676633      25.259340397763      25.120389244866
      3098    1       16.260168947627      27.002761788790      25.232147734227
      3099    1       14.362453448865      27.002941220965      26.952907517143
      3100    1       16.277269073995      25.201442388948      27.017251029013
      3101    1       18.052521889526      25.260826161441      25.183859049545
      3102    1       19.770073586623      27.034363287881      25.133229773709
      3103    1       17.934294448258      26.974680811254      27.068517186731
      3104    1       19.723138272927      25.223744425337      26.955694253499
      3105    1       21.576684772851      25.158592104714      25.190604837658
      3106    1       23.385841114058      27.011212669553      25.140825300840
      3107    1       21.568288533171      26.981866978297      27.086026793572
      3108    1       23.391947859258      25.189854960405      27.020795830411
      3109    1       25.268020476162      25.247641461799      25.236538811640
      3110    1       27.026490925777      26.937963698551      25.141437713380
      3111    1       25.251381505684      27.048138744999      26.981118394435
      3112    1       27.019307162393      25.124091135228      26.959526615278
      3113    1       28.846212996837      25.192850111096      25.234388189377
      3114    1       30.681229970847      26.913827919179      25.140603698964
      3115    1       28.865847049397      27.069759638608      26.934736488800
      3116    1       30.557022517923      25.218822259125      27.047302032544
      3117    1       32.314061420500      25.121298792572      25.127224624993
      3118    1       34.149642912728      26.946519893527      25.177513119839
      3119    1       32.397168261667      27.017329660713      27.057067878581
      3120    1       34.119341713127      25.173956590184      27.025722363220
      3121    1       -0.077175822127      28.783011640597      25.153212430110
      3122    1        1.817711920302      30.594871826323      25.238023009237
      3123    1       -0.066991245411      30.682724335000      26.931507354827
      3124    1        1.716443940183      28.780085136528      27.080918220314
      3125    1        3.597353224818      28.720987535204      25.188916255226
      3126    1        5.329337817151      30.597734221232      25.157188068565
      3127    1        3.641300606565      30.662672971165      26.924666785063
      3128    1        5.343192527765      28.754634900559      26.955343597569
      3129    1        7.260841146680      28.876361629352      25.145612194411
      3130    1        9.021662670424      30.521551442713      25.201173918916
      3131    1        7.149818656296      30.548011297295      27.013415263488
      3132    1        8.977527860631      28.761782813867      26.919279945072
      3133    1       10.885759725118      28.842364223156      25.277118014303
      3134    1       12.536120281159      30.536604631637      25.221681189864
      3135    1       10.761872101426      30.548154713013      26.949192235431
      3136    1       12.615717779677      28.835534209000      26.923455043472
      3137    1       14.447109672755      28.741732359866      25.271840819167
      3138    1       16.155148622734      30.678679110419      25.134307833587
      3139    1       14.339500020967      30.685783996809      27.041823203981
      3140    1       16.283739612013      28.828620362529      27.010784956644
      3141    1       18.053936693858      28.795186762409      25.125492764139
      3142    1       19.821029677609      30.631978636513      25.158847118455
      3143    1       17.941690573681      30.660124734408      27.029885600459
      3144    1       19.722481141955      28.713769785403      27.078026990142
      3145    1       21.666563983644      28.766807394908      25.241880473883
      3146    1       23.344787017907      30.551856683065      25.132693084011
      3147    1       21.542694958503      30.573452140682      26.935064824432
      3148    1       23.453986224971      28.789369789984      26.955945674479
      3149    1       25.159310689054      28.765867330469      25.282996118093
      3150    1       27.039949716299      30.640907214261      25.267866441935
      3151    1       25.238463033135      30.638431100055      26.939586017139
      3152    1       27.086408304398      28.858769030671      26.945931113911
      3153    1       28.789516476919      28.748716717322      25.135954609692
      3154    1       30.623233802089      30.525344369608      25.187550513034
      3155    1       28.812429358985      30.673152434290      27.012497406339
      3156    1       30.583687288123      28.722616841980      27.043560539459
      3157    1       32.431033301913      28.751398029811      25.222107781417
      3158    1       34.177670627694      30.683475860429      25.269292985129
      3159    1       32.482316775598      30.545751199841      27.021189623948
      3160    1       34.208000247526      28.791788534428      26.926616575534
      3161    1        0.023686748810      32.363068342575      25.135701885689
      3162    1        1.794177065444      34.160355839087      25.209365870378
      3163    1        0.079487648774      34.113959310430      27.061593159399
      3164    1        1.772862275211      32.398143118888      27.037674629377
      3165    1        3.575964405630      32.357153353102      25.253948362653
      3166    1        5.351669178660      34.224323497099      25.161975859095
      3167    1        3.632951277707      34.255734847499      26.950352879766
      3168    1        5.324449897110      32.337865356162      26.938862842445
      3169    1        7.248180933646      32.419299790108      25.174708647259
      3170    1        9.017206467994      34.234655240997      25.248532901050
      3171    1        7.163208350825      34.187147622585      26.986067844047
      3172    1        9.011720443136      32.454541391338      27.075290627763
      3173    1       10.799637234638      32.414097335914      25.131110297892
      3174    1       12.626163966023      34.226458440876      25.231081362963
      3175    1       10.852554967476      34.284867554088      27.002649334557
      3176    1       12.579009023720      32.471674798596      26.930172409636
      3177    1       14.340750439313      32.330308598615      25.210925412544
      3178    1       16.125433139298      34.144198927358      25.124773348747
      3179    1       14.331540154751      34.184250833775      26.938351462797
      3180    1       16.114585103057      32.424008286163      26.928502228480
      3181    1       17.937218317766      32.474454803935      25.278394451307
      3182    1       19.821952339966      34.196644711234      25.185346316257
      3183    1       17.976748563373      34.235622489826      27.081850633322
      3184    1       19.863941520766      32.323524721269      26.990502620059
      3185    1       21.531222023326      32.449414817924      25.129619133596
      3186    1       23.325072440045      34.215695611269      25.120322262598
      3187    1       21.570067740582      34.225155028907      27.041521648875
      3188    1       23.357704450326      32.336315830286      27.010977645641
      3189    1       25.243702256063      32.434461094637      25.198047523342
      3190    1       27.041042297294      34.189167584312      25.279991882097
      3191    1       25.223241680573      34.276702465690      27.003931528861
      3192    1       27.039844499448      32.404372760316      26.999830593457
      3193    1       28.771778731262      32.454938897115      25.153871046466
      3194    1       30.520585621271      34.236953328829      25.272163149976
      3195    1       28.882520879857      34.224081916037      27.029991202096
      3196    1       30.656050756347      32.383042208161      27.079631016556
      3197    1       32.372143453272      32.477993962741      25.150570814823
      3198    1       34.233857135725      34.142789474088      25.242292448282
      3199    1       32.328876634323      34.191256499127      27.019028684799
      3200    1       34.146086275510      32.439749134990      27.064734123786
      3201    1       -0.067818490202      -0.078540656471      28.745967923878
      3202    1        1.724810749083       1.805066493028      28.803700292350
      3203    1       -0.018553518642       1.814703343228      30.515899327238
      3204    1        1.769756721830      -0.016169500930      30.653098358789
      3205    1        3.679651267400      -0.017535455139      28.735233695389
      3206    1        5.378975825054       1.865057723386      28.733160097382
      3207    1        3.658942896304       1.744462203185      30.614720746174
      3208    1        5.443471301236      -0.001998264317      30.610873029623
      3209    1        7.258659797461      -0.048441087178      28.716571085854
      3210    1        8.929910406261       1.770526072685      28.835811480750
      3211    1        7.198067873224       1.782079748678      30.577394880938
      3212    1        8.981084547877       0.001178012555      30.629677048857
      3213    1       10.769037126664       0.063281329882      28.740770266315
      3214    1       12.569113944800       1.830651206839      28.804083520427
      3215    1       10.783057543031       1.780678583477      30.681362578748
      3216    1       12.587994638174      -0.026769779190      30.542445775808
      3217    1       14.331339397822      -0.021450022176      28.757277725236
      3218    1       16.215121413456       1.852575713505      28.716199418864
      3219    1       14.382745398007       1.782055811361      30.591832614532
      3220    1       16.147198704164      -0.030077085459      30.657448383046
      3221    1       18.041174283642      -0.052567841018      28.788058821694
      3222    1       19.781376586578       1.843104888345      28.789131871870
      3223    1       17.922795126329       1.840815215915      30.660374078292
      3224    1       19.766175942409       0.030849623727      30.664448353694
      3225    1       21.577931932488      -0.085211051196      28.823496630901
      3226    1       23.372535019914       1.824180171268      28.882078483023
      3227    1       21.515436773363       1.830535239624      30.521927591546
      3228    1       23.403389028813       0.011650445259      30.539717739856
      3229    1       25.197266535466       0.070703036830      28.851075102272
      3230    1       26.988127875586       1.871430753023      28.729498479434
      3231    1       25.139551683426       1.804082352304      30.567172579747
      3232    1       26.972986773230       0.017996985880      30.607872940225
      3233    1       28.862658581134       0.030926149014      28.859279826410
      3234    1       30.563320264838       1.719779012612      28.807360069940
      3235    1       28.815691676401       1.774138993195      30.640720762438
      3236    1       30.674615707221      -0.016857353667      30.638460751356
      3237    1       32.322048556298       0.062428061443      28.853913080932
      3238    1       34.114260055122       1.783917964073      28.732767058320
      3239    1       32.418957357160       1.860741393335      30.679146724813
      3240    1       34.253926035745      -0.061934487898      30.540631969593
      3241    1        0.017174910030       3.529077594690      28.773841095254
      3242    1        1.737395728846       5.474985861312      28.832043266790
      3243    1        0.061567946977       5.414080968723      30.684110863279
      3244    1        1.784629029175       3.585451282144      30.644459877286
      3245    1        3.523613485312       3.542928447190      28.851755531882
      3246    1        5.375088069295       5.466269606040      28.825111974808
      3247    1        3.654867226352       5.452332410575      30.610226547194
      3248    1        5.428935052209       3.596627713536      30.555108958084
      3249    1        7.221587529192       3.610228393734      28.822181798180
      3250    1        8.927640327573       5.370235459340      28.799662661823
      3251    1        7.208538451491       5.420662357136      30.639111579091
      3252    1        9.041641780379       3.582115990097      30.610417992454
      3253    1       10.813636513189       3.661421449877      28.756248028540
      3254    1       12.626605784333       5.417139624458      28.747906874284
      3255    1       10.753564268420       5.420877348282      30.574159444314
      3256    1       12.528325344155       3.533066616699      30.520453215001
      3257    1       14.392847621370       3.539863634121      28.778277697604
      3258    1       16.118009191100       5.464612339252      28.752026466465
      3259    1       14.318298323567       5.483881616997      30.599210982353
      3260    1       16.225920536523       3.565919427925      30.591077364682
      3261    1       17.914729142551       3.583235576290      28.855050734727
      3262    1       19.870455133314       5.345694186399      28.794795932263
      3263    1       18.082198223976       5.373510184233      30.664342181364
      3264    1       19.751651435434       3.679382725144      30.569501371694
      3265    1       21.574868702166       3.678926135970      28.854511241104
      3266    1       23.321539537179       5.330902603632      28.788186061061
      3267    1       21.530701347451       5.463834278019      30.541020451334
      3268    1       23.411681240659       3.585144675709      30.626946427167
      3269    1       25.121051571867       3.670167132143      28.809574853310
      3270    1       27.040955045673       5.458350309138      28.844588243806
      3271    1       25.212250191000       5.475888262351      30.618188544586
      3272    1       26.923048751665       3.602111206209      30.670479033196
      3273    1       28.805067690824       3.664230224818      28.807201264945
      3274    1       30.669870075572       5.472354354670      28.878752135501
      3275    1       28.835639958428       5.416788622732      30.645494418506
      3276    1       30.566571229635       3.675582014309      30.611914486317
      3277    1       32.331090002729       3.571227306058      28.866864827476
      3278    1       34.119514955041       5.402939315877      28.730607854150
      3279    1       32.327747124096       5.323142644098      30.532706958276
      3280    1       34.254052955075       3.525848901838      30.616412687501
      3281    1        0.085757031628       7.255952141150      28.856315504254
      3282    1        1.775483719165       8.969538248436      28.783105718702
      3283    1        0.012147542898       9.066662753859      30.648373477955
      3284    1        1.756018243573       7.207036853219      30.646303010215
      3285    1        3.514967520576       7.118390998738      28.783580156492
      3286    1        5.431389253039       9.083749026515      28.863542565806
      3287    1        3.664315716725       9.013538985131      30.652307440187
      3288    1        5.483743882801       7.258467602119      30.592722640990
      3289    1        7.169298841009       7.186584421371      28.878255170900
      3290    1        9.056830461744       8.993500567126      28.756344277508
      3291    1        7.254330227326       9.079082971885      30.657252804607
      3292    1        8.976304717880       7.162350763966      30.542044519800
      3293    1       10.842085869947       7.266675184854      28.724268507264
      3294    1       12.653086383872       9.009683953243      28.782723582099
      3295    1       10.717004695167       8.950704899841      30.556342981023
      3296    1       12.635287463049       7.139093634606      30.608039573867
      3297    1       14.366716693131       7.137610580256      28.883061789977
      3298    1       16.156297662085       8.970039135917      28.863614219037
      3299    1       14.458954731855       8.950976561110      30.562522916681
      3300    1       16.233164648270       7.163496538438      30.621144321190
      3301    1       18.086040371020       7.191161489521      28.815996505696
      3302    1       19.869603846698       9.066808066908      28.744661295131
      3303    1       18.070292810023       9.049152512154      30.555086266358
      3304    1       19.853976423318       7.198586520903      30.651032392658
      3305    1       21.533271201904       7.120555866869      28.820311737588
      3306    1       23.377156205487       9.080433954102      28.825444979263
      3307    1       21.559823484917       8.961110584295      30.549163173585
      3308    1       23.382567152875       7.164622163572      30.564719807076
      3309    1       25.169159004797       7.279664874928      28.877307582635
      3310    1       26.913760117506       9.051176944303      28.880804340384
      3311    1       25.256053560138       9.070904167522      30.515096595534
      3312    1       27.045210949299       7.156668739781      30.616614316452
      3313    1       28.858573921893       7.247714481291      28.863114782559
      3314    1       30.523863248813       8.958266769678      28.830629136008
      3315    1       28.782294163961       8.929435990591      30.673624786988
      3316    1       30.577879484974       7.149086798222      30.675121885653
      3317    1       32.413478922497       7.144842317840      28.861202189472
      3318    1       34.181791257461       8.997221573259      28.870392301708
      3319    1       32.408705153005       8.917579904134      30.648602741432
      3320    1       34.231834514330       7.255201303386      30.678918097410
      3321    1        0.071296240745      10.733918398063      28.844202779036
      3322    1        1.720081492002      12.642071751613      28.796187184324
      3323    1       -0.053124311116      12.546611383778      30.570995389170
      3324    1        1.808096656156      10.832567469937      30.678320306989
      3325    1        3.599903666203      10.847736878387      28.848029024756
      3326    1        5.427837173684      12.618118747274      28.853286331393
      3327    1        3.628398662959      12.610430349058      30.621284106941
      3328    1        5.352752478062      10.785060078350      30.521870033170
      3329    1        7.210362961756      10.733603382812      28.721512442839
      3330    1        8.947820896232      12.593629321492      28.754667073623
      3331    1        7.204522022022      12.635306771128      30.614674231726
      3332    1        9.039957035679      10.766274565985      30.671324071538
      3333    1       10.886416471547      10.830658700894      28.856155319795
      3334    1       12.639693521674      12.566689106239      28.809628671291
      3335    1       10.870135669138      12.544097282779      30.674165853089
      3336    1       12.619680320631      10.841181087974      30.652719392409
      3337    1       14.341238265813      10.870864341133      28.737967298926
      3338    1       16.207434588166      12.686825943732      28.713753743651
      3339    1       14.400261238270      12.551685078791      30.516819524825
      3340    1       16.127444526125      10.845424756523      30.611942225652
      3341    1       17.954059485411      10.762812355305      28.801425988541
      3342    1       19.872640084250      12.522456077745      28.730780949139
      3343    1       17.916471091301      12.669265075107      30.541209738313
      3344    1       19.841174218055      10.714475876316      30.521130460550
      3345    1       21.623335702389      10.754465046530      28.715503446324
      3346    1       23.472756154045      12.593191201536      28.835107523347
      3347    1       21.558727291794      12.555171282424      30.620334560323
      3348    1       23.457461406837      10.856132985751      30.573602876829
      3349    1       25.168417471991      10.724017242682      28.807393126046
      3350    1       26.988554638464      12.624234921346      28.766326956960
      3351    1       25.236722943632      12.674157673061      30.548095830804
      3352    1       27.056557839961      10.798350136467      30.549453017881
      3353    1       28.765331613997      10.763488537291      28.829757095380
      3354    1       30.570996489433      12.655131692044      28.830973095546
      3355    1       28.818269646551      12.660655167999      30.525286620180
      3356    1       30.530299499779      10.725433345628      30.673584642560
      3357    1       32.350698512421      10.734884333038      28.752612486974
      3358    1       34.117792258037      12.652283217293      28.849410578457
      3359    1       32.383002549346      12.540291588874      30.578988990223
      3360    1       34.226307705520      10.748335829863      30.528964133222
      3361    1       -0.052553086833      14.319731116855      28.715314065020
      3362    1        1.751086941886      16.147477360093      28.719408808761
      3363    1        0.022628385745      16.209985664235      30.595818246652
      3364    1        1.825281525543      14.465782683642      30.574624245089
      3365    1        3.560576992380      14.406242819769      28.830182278924
      3366    1        5.467854306967      16.237577065864      28.873808723182
      3367    1        3.623551412436      16.201383178523      30.609303159052
      3368    1        5.410196719070      14.458371844250      30.663614551371
      3369    1        7.236506942006      14.349980488674      28.807344130028
      3370    1        9.017448142837      16.177954592818      28.776900425016
      3371    1        7.258135101286      16.247650277850      30.678252554520
      3372    1        8.997911896821      14.384631357646      30.530040030893
      3373    1       10.732833646738      14.432299070472      28.721771172600
      3374    1       12.662720319083      16.119584999973      28.740813603435
      3375    1       10.855458389162      16.114460695071      30.658090887765
      3376    1       12.579461178484      14.420289868697      30.558035587649
      3377    1       14.362927455921      14.382846734284      28.743079186961
      3378    1       16.271806515102      16.273263492468      28.743343654914
      3379    1       14.410075944099      16.223061502712      30.663484994479
      3380    1       16.134964761952      14.482465639283      30.608975055152
      3381    1       17.934045857522      14.422471578877      28.758558679484
      3382    1       19.844868040402      16.276443634699      28.844153410342
      3383    1       17.956558031375      16.125859564726      30.608586143822
      3384    1       19.847939782654      14.359269942240      30.578454761632
      3385    1       21.558913317904      14.390198986409      28.757178421835
      3386    1       23.463167524518      16.178089524143      28.724945778444
      3387    1       21.543768350162      16.172686287970      30.565835366210
      3388    1       23.414930662300      14.435580578015      30.627587865782
      3389    1       25.119706604466      14.327154561751      28.830803715490
      3390    1       26.942848403092      16.205146535076      28.829552463788
      3391    1       25.208471059332      16.167786747372      30.680442737002
      3392    1       27.043021905076      14.340503675293      30.565698050429
      3393    1       28.762191442486      14.408569554668      28.771680704995
      3394    1       30.536555025648      16.125018513697      28.804761942985
      3395    1       28.818139469772      16.155777773689      30.681814200331
      3396    1       30.514462116110      14.331453080278      30.524561450435
      3397    1       32.380595186034      14.484152195139      28.771100152705
      3398    1       34.248591739448      16.266772025699      28.732509953831
      3399    1       32.445247764925      16.231825049419      30.631778084012
      3400    1       34.233674303574      14.436287409463      30.544158964729
      3401    1       -0.084761270604      18.017054331923      28.733715887125
      3402    1        1.754423212934      19.727138381767      28.833221403446
      3403    1       -0.051118174021      19.873441958858      30.592196736048
      3404    1        1.838101076429      17.979046406208      30.543158915609
      3405    1        3.533703014451      17.941049935160      28.799162772217
      3406    1        5.453649674720      19.724664095926      28.753772606121
      3407    1        3.622302787591      19.831318498183      30.620423438883
      3408    1        5.433298084197      17.977802231145      30.621176731405
      3409    1        7.279149788910      18.029896366698      28.841928631951
      3410    1        9.055547033958      19.742461975449      28.771822093081
      3411    1        7.226588680685      19.805105256219      30.572116596492
      3412    1        8.968067169527      17.924052664053      30.595436194800
      3413    1       10.829906708283      18.025943697852      28.729803574074
      3414    1       12.525344677951      19.736228248331      28.792100877816
      3415    1       10.728833443219      19.742660651368      30.533584524100
      3416    1       12.532414176317      17.941880350769      30.520446140115
      3417    1       14.414578538829      18.066074708504      28.810125789775
      3418    1       16.122699828102      19.777108402403      28.864098711434
      3419    1       14.330648929251      19.780209084961      30.648131421663
      3420    1       16.219443669174      18.054336949700      30.681983780189
      3421    1       17.924769766761      17.985423946863      28.845000651376
      3422    1       19.882072474100      19.800378400784      28.746897763960
      3423    1       17.948503402163      19.765018908916      30.662518845003
      3424    1       19.763252054005      17.929852014599      30.556340400147
      3425    1       21.539157332788      17.939946137233      28.720838922868
      3426    1       23.438827099201      19.844550213864      28.792949570710
      3427    1       21.566459935375      19.830024358826      30.650962993508
      3428    1       23.373773072805      18.039817704132      30.673886229470
      3429    1       25.118582072402      17.966337633980      28.842199665975
      3430    1       26.946737210053      19.714627994557      28.734004564782
      3431    1       25.187488652682      19.799984295401      30.583048371554
      3432    1       26.921804286936      18.015319889933      30.568706074384
      3433    1       28.745412082814      18.070710974774      28.836731063275
      3434    1       30.683093229244      19.843555705611      28.828379847710
      3435    1       28.786635607735      19.801782780003      30.543910193291
      3436    1       30.639080599006      17.984616783536      30.673870831563
      3437    1       32.433041324479      18.048603424835      28.855430114283
      3438    1       34.240857479059      19.841832780951      28.735964280850
      3439    1       32.421713767913      19.830874302336      30.536127753943
      3440    1       34.118571772929      17.919641908033      30.667604317086
      3441    1       -0.027343214289      21.574720047821      28.809121253269
      3442    1        1.833134216392      23.483110824699      28.876288806369
      3443    1        0.077400076598      23.316399573681      30.651220607103
      3444    1        1.739911603265      21.547388215085      30.675956069088
      3445    1        3.542826299494      21.515874553765      28.853972542193
      3446    1        5.348963052501      23.366403857195      28.812679339129
      3447    1        3.640394644084      23.454424435543      30.675373228239
      3448    1        5.403290688849      21.537181398193      30.582418592587
      3449    1        7.196616908539      21.641766330025      28.743013028049
      3450    1        9.083876560679      23.341373705224      28.765101837784
      3451    1        7.199631087997      23.389181668497      30.515074843128
      3452    1        8.956577466878      21.580932675883      30.685462753919
      3453    1       10.830875108622      21.675107883245      28.734191880655
      3454    1       12.551790030266      23.418709514860      28.743045401456
      3455    1       10.796330130055      23.448797801943      30.611777121899
      3456    1       12.595034527265      21.514407215213      30.533498060407
      3457    1       14.467808929601      21.534584346239      28.727267305155
      3458    1       16.235095230004      23.396336503038      28.855413745437
      3459    1       14.352839404414      23.343386790957      30.615465125168
      3460    1       16.187737108807      21.562919814527      30.542817436302
      3461    1       18.039295056217      21.518392593743      28.777848270118
      3462    1       19.736707158728      23.454932301927      28.715254216645
      3463    1       18.063558270879      23.447654175162      30.553346414369
      3464    1       19.757785586475      21.653040262533      30.531957086060
      3465    1       21.518295760251      21.612298505392      28.721992281032
      3466    1       23.378015006739      23.397320104580      28.755547620942
      3467    1       21.571519821893      23.449203009412      30.582805997237
      3468    1       23.388571656473      21.587226375176      30.596282292545
      3469    1       25.137680429464      21.610499152788      28.760213637746
      3470    1       27.069590268131      23.440808071862      28.733777651008
      3471    1       25.188341182801      23.377631429036      30.685355841015
      3472    1       26.965474939129      21.529464669000      30.665719259805
      3473    1       28.841965385474      21.588425908593      28.840637023538
      3474    1       30.520074916809      23.435647110470      28.748166134724
      3475    1       28.768323909260      23.409683917639      30.670143408786
      3476    1       30.648805532620      21.685047927097      30.522849905989
      3477    1       32.345164589251      21.673521716632      28.748992605928
      3478    1       34.149642212481      23.474371829958      28.851125938021
      3479    1       32.426424946398      23.421120292292      30.686814777756
      3480    1       34.177836146992      21.634211111764      30.563549729390
      3481    1       -0.019715977806      25.191232543136      28.870116300133
      3482    1        1.762328114927      27.043306621455      28.753129280785
      3483    1        0.005260229334      26.944570525006      30.561489580393
      3484    1        1.849947214655      25.117342552150      30.648806155877
      3485    1        3.559428375981      25.201745125068      28.882984179098
      3486    1        5.316865183994      26.920677141620      28.809039721117
      3487    1        3.569361730280      27.059619245679      30.601172206257
      3488    1        5.409703091326      25.284022223288      30.574944309089
      3489    1        7.159609757790      25.170082084626      28.764386817924
      3490    1        8.956812329289      27.045908937908      28.790976400971
      3491    1        7.155935314605      26.944893860873      30.543965549719
      3492    1        8.929471803007      25.247910106254      30.605979563863
      3493    1       10.825390667027      25.118442356831      28.746097462809
      3494    1       12.671218085188      26.939390413136      28.814857879229
      3495    1       10.721733740474      26.947438025901      30.634636002037
      3496    1       12.677347055443      25.247270266932      30.577390998234
      3497    1       14.314094979774      25.189936808607      28.814804608495
      3498    1       16.174644559275      27.060100985771      28.731574833871
      3499    1       14.483571140290      27.063640058114      30.606566759011
      3500    1       16.280077654480      25.172346109276      30.558294820148
      3501    1       18.074174030829      25.149489117750      28.869986555348
      3502    1       19.865465225945      27.005969056053      28.883189871370
      3503    1       18.083838036575      26.983632947871      30.672074464149
      3504    1       19.730114399249      25.158556287729      30.537851691840
      3505    1       21.644860543723      25.201491747917      28.822264505631
      3506    1       23.338383725585      26.940604869004      28.871281890760
      3507    1       21.596081971648      26.965952228113      30.600847881456
      3508    1       23.433908751011      25.237708473858      30.594749608821
      3509    1       25.148894649372      25.148575036811      28.840193184879
      3510    1       26.996872943493      27.065148883696      28.748062869761
      3511    1       25.153835862143      27.017913339330      30.567932040700
      3512    1       26.991891326917      25.146326941215      30.595782166215
      3513    1       28.760260642596      25.160959151416      28.862698241675
      3514    1       30.617529974145      27.071614086733      28.808771037824
      3515    1       28.841149322904      26.934604955126      30.624252769919
      3516    1       30.655262664226      25.180183347770      30.641993412384
      3517    1       32.392481234373      25.258849436368      28.721328999739
      3518    1       34.149802471283      26.932019277584      28.843321248415
      3519    1       32.315388711253      27.020915409435      30.596436491970
      3520    1       34.218261886559      25.262267590059      30.541501290649
      3521    1       -0.052430234432      28.853567185236      28.883753369113
      3522    1        1.747954329575      30.608840576303      28.749636684596
      3523    1        0.006015647457      30.658026241316      30.590408837449
      3524    1        1.857530585340      28.798382161372      30.645984303686
      3525    1        3.642194964959      28.779660925715      28.802802114289
      3526    1        5.357443758552      30.679926891738      28.761624787460
      3527    1        3.613631580276      30.670155727658      30.583669119107
      3528    1        5.362576564268      28.825880406220      30.630648112767
      3529    1        7.195827116581      28.739279295629      28.815965108915
      3530    1        8.945109526794      30.601849932201      28.762932926027
      3531    1        7.127085022761      30.627658432250      30.552815409425
      3532    1        9.073898208613      28.788143626319      30.538922380168
      3533    1       10.756593262694      28.715479719737      28.851896065660
      3534    1       12.589455747905      30.667058194429      28.818291016118
      3535    1       10.763564093587      30.573420034271      30.618779791636
      3536    1       12.644213818538      28.792562433953      30.564881933830
      3537    1       14.402086842786      28.884784834246      28.768638153231
      3538    1       16.237037852113      30.520438851457      28.762713365275
      3539    1       14.417524531686      30.632394380001      30.562350903439
      3540    1       16.222468853924      28.777053002254      30.519291043365
      3541    1       18.005255962990      28.766087350418      28.881384234429
      3542    1       19.811717834443      30.648562501246      28.879433273942
      3543    1       17.993046507963      30.589910481161      30.584305007394
      3544    1       19.758980781213      28.815897220321      30.596120275985
      3545    1       21.519835880757      28.734193474110      28.879756468386
      3546    1       23.463781634458      30.672294161630      28.805583723154
      3547    1       21.662592366535      30.543939947783      30.555482596690
      3548    1       23.464230302611      28.717185813933      30.610427417142
      3549    1       25.205646599850      28.719975354932      28.865214977947
      3550    1       26.922786657857      30.543955853049      28.832540764539
      3551    1       25.195110879419      30.586807999324      30.552952293863
      3552    1       26.925089626309      28.804429222771      30.602847854080
      3553    1       28.804922372935      28.758106233567      28.761830357937
      3554    1       30.631758581092      30.597520453727      28.808405937118
      3555    1       28.747067990772      30.602501953517      30.602185959672
      3556    1       30.595678962175      28.800970651070      30.648982620135
      3557    1       32.413810835786      28.807105351020      28.729826699119
      3558    1       34.127909960248      30.639548987816      28.812649584117
      3559    1       32.373910689163      30.595061746344      30.624105603943
      3560    1       34.239718556340      28.829562281915      30.592935346913
      3561    1       -0.063420344937      32.352003715390      28.857494282407
      3562    1        1.811053258565      34.210309476376      28.837516057602
      3563    1       -0.049889099596      34.183008843340      30.551788436959
      3564    1        1.719827662515      32.475541438464      30.557364434840
      3565    1        3.667739382314      32.347962948436      28.832919201465
      3566    1        5.335803529825      34.278854278293      28.779616978331
      3567    1        3.595772398179      34.256352318404      30.636219254959
      3568    1        5.361119854401      32.428212613162      30.580016383153
      3569    1        7.266068827577      32.328250862619      28.816175057019
      3570    1        8.996171656327      34.125082930848      28.853845784316
      3571    1        7.286001928460      34.117097317625      30.618703785575
      3572    1        8.968505974058      32.404975623378      30.631388106365
      3573    1       10.753108290621      32.376503361986      28.716426991409
      3574    1       12.557591776477      34.219222618298      28.875019009425
      3575    1       10.720576280129      34.157040123217      30.625170644651
      3576    1       12.584704366409      32.348699582770      30.539811169037
      3577    1       14.404328402561      32.365342606706      28.849915987483
      3578    1       16.248973507893      34.131469204804      28.844892248817
      3579    1       14.366009762917      34.171445935302      30.645213557454
      3580    1       16.263303985848      32.419438819538      30.568106228757
      3581    1       17.950343983790      32.394989284946      28.754207416459
      3582    1       19.859935189800      34.126906522622      28.757334186469
      3583    1       17.951687292796      34.227040315444      30.601384965844
      3584    1       19.733655470903      32.482041242459      30.603850938942
      3585    1       21.671696878863      32.424814002537      28.815316858614
      3586    1       23.480009166270      34.264291472468      28.855011010310
      3587    1       21.596235117399      34.259386221828      30.559093473620
      3588    1       23.473148703155      32.449149234150      30.679106032730
      3589    1       25.124868251773      32.436907191507      28.755409849950
      3590    1       27.043915493034      34.164590840281      28.802399095492
      3591    1       25.188561714036      34.197894830584      30.616143396525
      3592    1       26.921998515379      32.353501821319      30.550434695285
      3593    1       28.714551151280      32.471799698794      28.881781746686
      3594    1       30.523595487087      34.236172153016      28.818234128943
      3595    1       28.809795841654      34.238317974634      30.555348304019
      3596    1       30.575668921027      32.485592360107      30.626352422943
      3597    1       32.325044722736      32.485013024443      28.726283924483
      3598    1       34.212323331736      34.122144919847      28.858402704411
      3599    1       32.319181220997      34.193119489975      30.650030252374
      3600    1       34.182357267120      32.429925874010      30.543508242571
      3601    1       -0.044118774789       0.013523298181      32.323565763149
      3602    1        1.788637682911       1.771689136266      32.362636293548
      3603    1       -0.044009664929       1.756809868313      34.157944866867
      3604    1        1.729437147549       0.053714256370      34.284356337936
      3605    1        3.615270952284       0.073045333941      32.354656553547
      3606    1        5.393705482694       1.879660998738      32.419517636833
      3607    1        3.640502689421       1.776495734579      34.265924615637
      3608    1        5.473636831701      -0.038377120763      34.254454956027
      3609    1        7.274124635426       0.038688162604      32.386707736576
      3610    1        9.011849752131       1.882077467900      32.430645780277
      3611    1        7.186012992335       1.714376522492      34.272269433525
      3612    1        8.980992368732       0.002437602503      34.274660402183
      3613    1       10.865485494956       0.052181297582      32.405253002613
      3614    1       12.618211788015       1.754128800732      32.397299848017
      3615    1       10.734096031648       1.857379853336      34.245668874452
      3616    1       12.642661509935       0.071166107201      34.276197398126
      3617    1       14.433818366724      -0.082094151679      32.480113744041
      3618    1       16.281851359307       1.852308296362      32.485603899097
      3619    1       14.360189529758       1.770542550492      34.196190470896
      3620    1       16.155644152286       0.009747503626      34.178614248320
      3621    1       18.030475861248      -0.042842335036      32.399903807022
      3622    1       19.837896174783       1.870512183061      32.433784425592
      3623    1       18.071420976810       1.857255716308      34.206198453354
      3624    1       19.773400677928      -0.075991870806      34.180657259779
      3625    1       21.667489505237       0.062679710651      32.450280977665
      3626    1       23.395444926100       1.729263648522      32.486184678462
      3627    1       21.641275771672       1.761138308628      34.126021046355
      3628    1       23.315277039352       0.048267421404      34.193431383899
      3629    1       25.243091568555      -0.084967555595      32.478986693495
      3630    1       27.058234658244       1.866651324873      32.407328643281
      3631    1       25.199851114121       1.720933210976      34.178910826628
      3632    1       27.033670257504      -0.064013812835      34.230461555999
      3633    1       28.760500162033      -0.025228109449      32.364296594679
      3634    1       30.673078998250       1.759827972523      32.324052254539
      3635    1       28.880759630923       1.746954331012      34.150908042707
      3636    1       30.605638037894      -0.079533434485      34.134613785094
      3637    1       32.328425862476      -0.069276361980      32.454654584306
      3638    1       34.138978981713       1.877692288289      32.469461106514
      3639    1       32.450106429157       1.751867467850      34.223334224244
      3640    1       34.269578175236       0.019336508288      34.177014285004
      3641    1        0.014656071560       3.594496312544      32.318204675775
      3642    1        1.731974532752       5.441318267495      32.371772783777
      3643    1       -0.026859984928       5.455319622408      34.236329225623
      3644    1        1.871292808609       3.518664044663      34.181089848437
      3645    1        3.563303732372       3.605057222250      32.338364832164
      3646    1        5.467714359742       5.372372146715      32.442386392580
      3647    1        3.644750184553       5.427700601096      34.192544285536
      3648    1        5.318443618475       3.547181519203      34.128138591012
      3649    1        7.117935464965       3.532059310687      32.367901450597
      3650    1        8.946786175538       5.353037105338      32.484729364429
      3651    1        7.172038502787       5.416605351533      34.154822419059
      3652    1        9.065490483211       3.661843743488      34.155575679121
      3653    1       10.879964893889       3.532552119295      32.408356057266
      3654    1       12.660756198413       5.354186580128      32.370129735604
      3655    1       10.830754332389       5.337423259013      34.167849729340
      3656    1       12.644087934990       3.626416048905      34.208780991515
      3657    1       14.336191648873       3.637341614188      32.338148089433
      3658    1       16.170787116325       5.471279479227      32.425263923714
      3659    1       14.465689497836       5.431871174715      34.195807412187
      3660    1       16.172702889822       3.665389220960      34.188785832984
      3661    1       17.915515109378       3.593696706397      32.395622615947
      3662    1       19.884549195745       5.370267574251      32.355517697582
      3663    1       17.974415924344       5.348722162865      34.255364048626
      3664    1       19.778708665854       3.643503127993      34.221358842042
      3665    1       21.610699159548       3.629555524491      32.368474109624
      3666    1       23.464208452249       5.479640666372      32.444007270889
      3667    1       21.558683609059       5.445593946915      34.138909014916
      3668    1       23.351729902679       3.624147312721      34.281237918169
      3669    1       25.255763545416       3.585715812760      32.335659277409
      3670    1       26.921371430000       5.355430045470      32.472094885260
      3671    1       25.174450512087       5.426748802528      34.172786707402
      3672    1       27.085591078782       3.529632250534      34.171444771444
      3673    1       28.845934868714       3.603698523888      32.355464818538
      3674    1       30.612115181755       5.342011975853      32.436854737712
      3675    1       28.760470874839       5.334229017453      34.206493823802
      3676    1       30.566119402894       3.639053882042      34.276675885530
      3677    1       32.321510391534       3.654495830420      32.332943351833
      3678    1       34.185368448332       5.334298249502      32.389219518997
      3679    1       32.423036957338       5.458147747070      34.197806229357
      3680    1       34.249561171520       3.651858261323      34.171635963498
      3681    1        0.055100803464       7.151857998957      32.462853571891
      3682    1        1.723173110449       8.940809985318      32.408509438617
      3683    1        0.056958896348       8.982913593982      34.186364040169
      3684    1        1.879419698549       7.230535482732      34.193011580690
      3685    1        3.677341036285       7.285431976550      32.367748391898
      3686    1        5.393237689424       8.937085512049      32.382960223988
      3687    1        3.550699887667       9.037580092811      34.263945622260
      3688    1        5.444666244164       7.199275132106      34.286163169620
      3689    1        7.203789672078       7.175029581183      32.460769739757
      3690    1        9.053763002939       9.059141594780      32.383512906728
      3691    1        7.179830732757       8.915768547486      34.231055749349
      3692    1        8.948019248492       7.214269159699      34.135166839396
      3693    1       10.835270281146       7.252692536442      32.423834166636
      3694    1       12.600141992751       9.024860557068      32.335474987383
      3695    1       10.744195929432       8.966562577672      34.197255939928
      3696    1       12.592727662076       7.254450931696      34.257586940108
      3697    1       14.395819494026       7.134919836031      32.322885932067
      3698    1       16.194808666897       8.927438879901      32.338194333586
      3699    1       14.354699410820       8.933636670198      34.168607699954
      3700    1       16.192669286488       7.194417172472      34.223589959858
      3701    1       18.081409402791       7.205432739440      32.447536915540
      3702    1       19.844049259328       8.986963224461      32.475095116890
      3703    1       17.945773419773       8.945240675495      34.170260409334
      3704    1       19.852109033314       7.218455068229      34.281168679900
      3705    1       21.606998997178       7.143224096163      32.368020706048
      3706    1       23.386170283271       8.968488283582      32.477103337986
      3707    1       21.533849266495       8.970746456011      34.132317595930
      3708    1       23.357415562081       7.154331325305      34.207289840119
      3709    1       25.267558468675       7.257797469927      32.423283801855
      3710    1       26.989841110734       8.978054969332      32.463354172152
      3711    1       25.153206407460       8.952342927809      34.127537563035
      3712    1       26.957735946469       7.264556323807      34.191272943926
      3713    1       28.770455120238       7.140803079610      32.387394112476
      3714    1       30.636548512610       9.001244814997      32.443354644537
      3715    1       28.827054568517       8.985371614052      34.192398874023
      3716    1       30.561576221336       7.281569802967      34.123363061577
      3717    1       32.464136014419       7.258727891819      32.440847644349
      3718    1       34.264859095377       8.924092134875      32.417379438941
      3719    1       32.361162450732       9.025256297761      34.231299899227
      3720    1       34.125324489644       7.165009335246      34.285854633138
      3721    1        0.044653545666      10.850602351686      32.460133516535
      3722    1        1.811210337750      12.666494325017      32.382296306124
      3723    1        0.040389972313      12.591045220022      34.222424314823
      3724    1        1.721971501092      10.874208047498      34.220728856440
      3725    1        3.654049634790      10.785379949180      32.361711047248
      3726    1        5.436314938180      12.533201907518      32.476063959953
      3727    1        3.533098595411      12.594612063774      34.185089798085
      3728    1        5.375549440856      10.757972218293      34.214580946212
      3729    1        7.197019064825      10.721626287518      32.316670504115
      3730    1        9.054276607981      12.630340680992      32.412285141709
      3731    1        7.191722888015      12.515878653836      34.277242595508
      3732    1        9.070675374526      10.832791399658      34.172425080597
      3733    1       10.867699907109      10.725424168328      32.386257955824
      3734    1       12.596604454873      12.549214407313      32.430608803709
      3735    1       10.819412619239      12.606960197869      34.181402513375
      3736    1       12.515237646231      10.749057656203      34.205708942582
      3737    1       14.339927867460      10.758249284605      32.396471791620
      3738    1       16.148303420410      12.591577422006      32.451375694547
      3739    1       14.480570307528      12.581187630813      34.231741681116
      3740    1       16.273154323520      10.849707972365      34.211955566211
      3741    1       17.973880664856      10.850732861737      32.459865935907
      3742    1       19.736591159199      12.611285126152      32.328521157944
      3743    1       17.947149538346      12.576843836840      34.263315158585
      3744    1       19.874667486135      10.809104659325      34.180904594757
      3745    1       21.517473629316      10.759082657103      32.421986629276
      3746    1       23.474055683344      12.655389188539      32.394755339338
      3747    1       21.520650884745      12.675978493655      34.138022443900
      3748    1       23.352074935778      10.885370183671      34.280785067044
      3749    1       25.174124135360      10.745443567864      32.349771715870
      3750    1       26.936625347192      12.589366066109      32.336061529308
      3751    1       25.151554112980      12.524419719779      34.115339981446
      3752    1       26.942791818654      10.878717203371      34.118296620865
      3753    1       28.766125973269      10.745249180751      32.453137963123
      3754    1       30.634810755188      12.587532037124      32.374757501398
      3755    1       28.881001339385      12.631305497989      34.151885644870
      3756    1       30.630696923416      10.718439570161      34.286634229214
      3757    1       32.408580446997      10.768915002864      32.380443926128
      3758    1       34.115868450244      12.581204008594      32.372264054935
      3759    1       32.326295196556      12.564236506198      34.283836620744
      3760    1       34.188350438983      10.740441026054      34.232194231248
      3761    1        0.017744339354      14.367158761773      32.313825657767
      3762    1        1.785893298302      16.221846626075      32.450178680359
      3763    1       -0.048148175965      16.161842011434      34.132778018806
      3764    1        1.742297708479      14.480801332015      34.221889018498
      3765    1        3.670061715626      14.422193798000      32.419671277561
      3766    1        5.385082652836      16.222425134638      32.427761698938
      3767    1        3.597906998945      16.258682089527      34.226969534506
      3768    1        5.412985702853      14.420698998025      34.273397061917
      3769    1        7.278280405581      14.447256367171      32.329273190604
      3770    1        8.989062115470      16.153973281411      32.327908541902
      3771    1        7.257122954670      16.244832997999      34.189957006046
      3772    1        8.957735357352      14.396334299769      34.233166633343
      3773    1       10.718048852699      14.350714357234      32.373436780933
      3774    1       12.602447123958      16.239497058385      32.419168800649
      3775    1       10.765061591611      16.173469113530      34.196586605040
      3776    1       12.612800548205      14.351210139047      34.216065174632
      3777    1       14.343900738430      14.384814206330      32.427635570924
      3778    1       16.190444112024      16.233216783087      32.476709850402
      3779    1       14.383503395133      16.128453323721      34.182684288064
      3780    1       16.186897928080      14.372148732633      34.207670025757
      3781    1       17.931512966727      14.388331569382      32.365517870843
      3782    1       19.756607222208      16.148994261667      32.482719821062
      3783    1       18.050776531695      16.174040116396      34.181800581051
      3784    1       19.860662302110      14.370563104290      34.250113760119
      3785    1       21.618579717170      14.428190084610      32.315597850203
      3786    1       23.414477561697      16.157347264856      32.477377564661
      3787    1       21.603604475287      16.255404178374      34.184816452992
      3788    1       23.410173343351      14.366670339571      34.197016558951
      3789    1       25.229547669098      14.472019210281      32.347422517280
      3790    1       27.007351010376      16.253268518792      32.405364492651
      3791    1       25.229231563864      16.282954864233      34.190862996567
      3792    1       26.977569980321      14.353711267555      34.181107907603
      3793    1       28.718370032923      14.371477141807      32.469191721218
      3794    1       30.655677494907      16.139209407745      32.385872534560
      3795    1       28.856500063549      16.164195166347      34.203267907514
      3796    1       30.525029978231      14.484809761477      34.254698447800
      3797    1       32.469631922343      14.401676892299      32.314596063198
      3798    1       34.222811431306      16.198397146360      32.397880112149
      3799    1       32.348034297462      16.234792499246      34.246306268913
      3800    1       34.237993492084      14.318947109471      34.274248054871
      3801    1       -0.044877583891      18.006662758885      32.379951191647
      3802    1        1.807448746846      19.751541878252      32.444477977949
      3803    1       -0.009056360929      19.836286272308      34.261282406693
      3804    1        1.783260311542      17.995961497620      34.240221297413
      3805    1        3.580320002302      18.070003341036      32.452654711207
      3806    1        5.321339348152      19.825039387322      32.482641269900
      3807    1        3.651945778624      19.728848716536      34.218316443772
      3808    1        5.354244009676      18.046901956902      34.178637278995
      3809    1        7.156022164722      17.948454058720      32.380843466740
      3810    1        9.007107220196      19.883502989069      32.402829771745
      3811    1        7.183056322429      19.794595964225      34.137854636900
      3812    1        8.935959584848      17.941093546759      34.190038935994
      3813    1       10.781594271848      18.078726585575      32.315187839519
      3814    1       12.592657320623      19.853267968092      32.352215185089
      3815    1       10.814914305772      19.836641387649      34.194755415439
      3816    1       12.649029441957      18.047787217338      34.182980949146
      3817    1       14.363303364144      17.983503784014      32.350292867283
      3818    1       16.271853854362      19.762255370189      32.439479892594
      3819    1       14.472260611073      19.737386886727      34.203597371037
      3820    1       16.161459072558      17.990986940346      34.220773237485
      3821    1       18.012268348464      17.997959691855      32.379608206176
      3822    1       19.738692754119      19.829753862061      32.390110411235
      3823    1       17.952207216596      19.723951796085      34.182317783436
      3824    1       19.736528457184      17.980004877520      34.139048942683
      3825    1       21.654835612621      18.078013145769      32.444825848501
      3826    1       23.379793523241      19.770449592961      32.432803269410
      3827    1       21.659613323491      19.849280836678      34.139571828303
      3828    1       23.439917908999      18.031508827249      34.190673203098
      3829    1       25.277795848647      18.053353057646      32.450890223423
      3830    1       27.046469345979      19.826649350426      32.362529262740
      3831    1       25.249872460621      19.823234129819      34.197250057345
      3832    1       27.086358733230      18.030849239049      34.224271318800
      3833    1       28.722383984697      18.075936312994      32.374895955707
      3834    1       30.612281815099      19.744507571078      32.474692601333
      3835    1       28.811221608765      19.728536328798      34.285593650082
      3836    1       30.635502756065      18.082107080005      34.201648064437
      3837    1       32.353946002904      17.927156811711      32.455786599049
      3838    1       34.181789786522      19.885337284509      32.459395370456
      3839    1       32.452003399670      19.858530020396      34.228822800831
      3840    1       34.226710799763      17.957080677308      34.256958856599
      3841    1       -0.014674541617      21.654744990742      32.409415189623
      3842    1        1.752253554310      23.404260843700      32.390686958929
      3843    1       -0.061422195747      23.361906797393      34.143119161504
      3844    1        1.803479922864      21.628553935563      34.258663917481
      3845    1        3.559743601324      21.519533039866      32.377717577735
      3846    1        5.342994282645      23.408475100039      32.479904526085
      3847    1        3.625625064530      23.483615648835      34.121013693693
      3848    1        5.486015700618      21.560608857615      34.257909172923
      3849    1        7.241119344057      21.558716521104      32.469359491644
      3850    1        8.979600638309      23.446263449137      32.387349066596
      3851    1        7.158678641188      23.368994494858      34.147470123218
      3852    1        9.074562182212      21.579923280873      34.241511190261
      3853    1       10.715982446391      21.573193688428      32.357078125507
      3854    1       12.568037784709      23.401093060304      32.483115921756
      3855    1       10.866825086278      23.344854657810      34.189241474820
      3856    1       12.557408375956      21.685847716511      34.174660148092
      3857    1       14.462471947486      21.533811669925      32.466011027683
      3858    1       16.225975059062      23.351151838862      32.395498892402
      3859    1       14.432266789299      23.426337766784      34.243565193483
      3860    1       16.227203406900      21.566600407003      34.228134648445
      3861    1       17.920360640773      21.633287279465      32.388761584405
      3862    1       19.885688236130      23.478031694278      32.432992939010
      3863    1       18.055470631940      23.358210565117      34.145832687087
      3864    1       19.740496445818      21.586152374866      34.279987510000
      3865    1       21.583701960970      21.583675554358      32.361995828749
      3866    1       23.380686103211      23.332765715808      32.338173241897
      3867    1       21.617572843076      23.362998087509      34.242250185936
      3868    1       23.391413898876      21.662047576552      34.119310680063
      3869    1       25.282534732267      21.542599087036      32.484310527040
      3870    1       26.987404502053      23.409382683748      32.329474428899
      3871    1       25.226861246064      23.343560780502      34.126256186209
      3872    1       27.070525408832      21.624569386152      34.224010308296
      3873    1       28.761212367491      21.684054232648      32.483955511530
      3874    1       30.574982249107      23.319498249348      32.480782985877
      3875    1       28.882341305288      23.455388637677      34.213097376266
      3876    1       30.639938156251      21.514547543777      34.223510014683
      3877    1       32.360554518913      21.521588003220      32.406957887164
      3878    1       34.170373974634      23.470777713468      32.464937969405
      3879    1       32.476314892414      23.416726859594      34.190452704155
      3880    1       34.265540924334      21.610912282178      34.192358524294
      3881    1        0.021274060935      25.227644767300      32.452870355252
      3882    1        1.742063809513      26.941174567186      32.439730783430
      3883    1        0.033204087572      26.986755575844      34.193938493838
      3884    1        1.806204396214      25.212959095283      34.230152585617
      3885    1        3.585376734250      25.194448894895      32.444364457540
      3886    1        5.379409413023      27.075992743770      32.388715614678
      3887    1        3.521513724470      26.999124928497      34.162511693533
      3888    1        5.411423694278      25.277869050683      34.187566865265
      3889    1        7.235451861555      25.208373908553      32.423771774879
      3890    1        9.000362452558      26.962308963056      32.455584731533
      3891    1        7.144902925509      26.983066405953      34.273485234389
      3892    1        8.941439337177      25.263491664722      34.213144325522
      3893    1       10.816348931177      25.179086690321      32.394135175801
      3894    1       12.595578866796      27.059660118120      32.427501271792
      3895    1       10.728420670404      26.951470343849      34.283963448549
      3896    1       12.647154735792      25.147323618597      34.137766984591
      3897    1       14.321682928382      25.163680726805      32.339756560281
      3898    1       16.218189997459      26.949073131379      32.465016101849
      3899    1       14.454736887505      27.043960377263      34.171100931237
      3900    1       16.189926519106      25.183484623062      34.235847349681
      3901    1       18.084404162708      25.136350981725      32.478977924850
      3902    1       19.817705003156      27.058283458897      32.386934007609
      3903    1       17.930735695672      27.022484584199      34.191960308939
      3904    1       19.781753912366      25.249534522779      34.274599809258
      3905    1       21.641533296922      25.193849450459      32.401661318799
      3906    1       23.402744272374      27.044830153217      32.362908742279
      3907    1       21.534670889578      27.019976870575      34.276072338156
      3908    1       23.420115558800      25.128961925687      34.231092769249
      3909    1       25.195591364690      25.193587177482      32.315206661637
      3910    1       26.988628333654      26.936985468608      32.374944822642
      3911    1       25.245804295673      27.035436635516      34.149595776702
      3912    1       26.949135876736      25.214338752985      34.193553829365
      3913    1       28.872675207494      25.272234167336      32.345206237421
      3914    1       30.682233515249      27.080041691743      32.432136097476
      3915    1       28.817327388817      27.069366234903      34.225118704053
      3916    1       30.514977956670      25.269695019490      34.148620330502
      3917    1       32.446850287731      25.162006687867      32.429757563216
      3918    1       34.201503970153      26.931049722699      32.408100288754
      3919    1       32.406106480767      27.020396486854      34.162450459324
      3920    1       34.122276021878      25.249655870626      34.231371579280
      3921    1       -0.011561521297      28.839876854748      32.359083058840
      3922    1        1.772513821588      30.651173180238      32.467661632197
      3923    1       -0.009769155403      30.652256725593      34.132929894509
      3924    1        1.754171584971      28.743737853730      34.120548271042
      3925    1        3.564352414949      28.807312426201      32.434647648980
      3926    1        5.436302963373      30.529695403711      32.389729397274
      3927    1        3.674339760812      30.513837641923      34.204160167885
      3928    1        5.317131732346      28.777591419885      34.256003454618
      3929    1        7.256177567848      28.782856274289      32.398130929827
      3930    1        9.018403732930      30.679220519991      32.479796119666
      3931    1        7.146978092397      30.629737692466      34.212092831302
      3932    1        8.956364667370      28.736082494005      34.145511677974
      3933    1       10.822073006366      28.838156120869      32.456488520643
      3934    1       12.570210791997      30.648722854027      32.484883696561
      3935    1       10.883731086707      30.609499426119      34.169896163902
      3936    1       12.561656756344      28.754068091845      34.148609077611
      3937    1       14.363652387622      28.821262124326      32.399246262517
      3938    1       16.285333030920      30.618752025675      32.401614293895
      3939    1       14.450708367071      30.537786164313      34.142235697422
      3940    1       16.163945136884      28.770652725206      34.229766090507
      3941    1       17.967890148851      28.730718267081      32.429392875313
      3942    1       19.880757531895      30.641158841298      32.360214935596
      3943    1       17.978310689773      30.530176132794      34.128060860962
      3944    1       19.761866880464      28.815732642878      34.159887883390
      3945    1       21.685282239085      28.733893012784      32.483274203604
      3946    1       23.411482263175      30.625861968470      32.405370302486
      3947    1       21.626985040148      30.629832578634      34.208455432958
      3948    1       23.346159322288      28.854635333868      34.127506323758
      3949    1       25.284056428653      28.842114094787      32.327115411668
      3950    1       26.944154820972      30.577363035453      32.435528608802
      3951    1       25.273569370909      30.617567716857      34.263483530984
      3952    1       26.997449920654      28.834408468686      34.256974973288
      3953    1       28.842718943364      28.756832322879      32.422372407359
      3954    1       30.610420067672      30.629378254167      32.383119728453
      3955    1       28.777313828045      30.574747990564      34.254018584052
      3956    1       30.598556700773      28.749591934103      34.146065560262
      3957    1       32.367171866217      28.764742194485      32.421234589360
      3958    1       34.234719879015      30.622652642135      32.317547864428
      3959    1       32.434344197584      30.593510897291      34.271060705471
      3960    1       34.252066395041      28.768628642122      34.285323581722
      3961    1       -0.037476251976      32.442657385657      32.457660999834
      3962    1        1.742333089614      34.181855032179      32.383588476855
      3963    1       -0.057883956790      34.286685607232      34.263076652873
      3964    1        1.728095959592      32.466582056143      34.224478963188
      3965    1        3.631202483558      32.467416556120      32.449793346154
      3966    1        5.337129434630      34.169122969063      32.384493928721
      3967    1        3.607331023377      34.132830313157      34.242808043692
      3968    1        5.479588239103      32.382637721130      34.203149751643
      3969    1        7.156786615520      32.383000256317      32.385373408313
      3970    1        8.964245572835      34.277937752137      32.437422531468
      3971    1        7.275170299566      34.279593462331      34.168731177871
      3972    1        9.052688210221      32.386964499713      34.140487436159
      3973    1       10.795404147718      32.315819072010      32.439187855120
      3974    1       12.599542665078      34.127122754069      32.416232201292
      3975    1       10.845865094602      34.266169210627      34.213146479463
      3976    1       12.642029048354      32.342604631132      34.183399412129
      3977    1       14.473910562013      32.363518515119      32.433978297083
      3978    1       16.162750048989      34.155279283299      32.361771401141
      3979    1       14.358696143229      34.166028089379      34.132396988159
      3980    1       16.200807468753      32.375126817626      34.260539553881
      3981    1       18.042759199109      32.343817321133      32.318947630252
      3982    1       19.749748732583      34.247409597098      32.482858492421
      3983    1       17.938808519962      34.202759010251      34.129618320030
      3984    1       19.819084889880      32.451524235558      34.188946781044
      3985    1       21.581440999626      32.332829709215      32.353460586898
      3986    1       23.367114454320      34.271634647817      32.430278616090
      3987    1       21.544912866119      34.233961849351      34.136057409294
      3988    1       23.319945740050      32.366866354726      34.277214390383
      3989    1       25.246318845177      32.334181676078      32.347692800110
      3990    1       27.084566142305      34.186539775633      32.318486560665
      3991    1       25.187756411453      34.205367150825      34.131705288786
      3992    1       26.969707148715      32.379005987863      34.133954018106
      3993    1       28.757872365700      32.339941384417      32.345618284255
      3994    1       30.610158971885      34.191328021646      32.354653290854
      3995    1       28.843122088319      34.126666725973      34.177742458200
      3996    1       30.523443874170      32.459209079833      34.258803154366
      3997    1       32.457337074680      32.399244060205      32.350173415329
      3998    1       34.164162961566      34.175275213214      32.361700707253
      3999    1       32.363611151002      34.238189350040      34.236168080118
      4000    1       34.243379394368      32.410392988449      34.198502413542
